time,_dt,disp_6x,disp_6y,disp_6z,hydrostatic,strain_zx,stress_zx,vonmises
0,0,0,0,0,0,0,0,0
0.01,0.01,5.5049833095936e-08,-6.9515229110915e-12,1.1011501203184e-07,-2.2686612618213e-09,-8.2781442004689e-08,-5.235558094559e-10,2.2818772362417e-09
0.02,0.01,1.1003914331644e-07,-4.1169071493943e-11,2.2016909822057e-07,-6.3696966177066e-09,-1.655628050472e-07,-1.4701144554185e-09,6.40561139375e-09
0.03,0.01,1.6491089910625e-07,-1.2838550897792e-10,3.3010471113927e-07,-1.2525910290924e-08,-2.4834395165447e-07,-2.8914160333867e-09,1.2592439267855e-08
0.04,0.01,2.1961232763443e-07,-2.9246967005455e-10,4.3986840086067e-07,-2.0862660806674e-08,-3.3112466477318e-07,-4.8169111004639e-09,2.0963896386374e-08
0.05,0.01,2.7409449764574e-07,-5.5561540946653e-10,5.4941038790627e-07,-3.1456089760959e-08,-4.1390464764179e-07,-7.2648853002367e-09,3.1590452103434e-08
0.06,0.01,3.283120352608e-07,-9.3846923240145e-10,6.5868427597578e-07,-4.4355019111124e-08,-4.9668352608272e-07,-1.0247503279538e-08,4.4513697694746e-08
0.07,0.01,3.8222286303368e-07,-1.4602466380563e-09,7.6764679155871e-07,-5.9591678040465e-08,-5.7946085191046e-07,-1.3773273984323e-08,5.9757304139357e-08
0.08,0.01,4.3578795948612e-07,-2.1388388143714e-09,8.7625754624705e-07,-7.7187429353441e-08,-6.6223610683448e-07,-1.7848362181819e-08,7.7332945221675e-08
0.09,0.01,4.8897113706199e-07,-2.9909108109082e-09,9.8447881891604e-07,-9.715606511424e-08,-7.4500870654162e-07,-2.2477339562617e-08,9.7243766880574e-08
0.1,0.01,5.4173883684154e-07,-4.0319920495151e-09,1.0922753556423e-06,-1.1950582621591e-07,-8.2777800478827e-07,-2.7663641998425e-08,1.1948656286089e-07
0.11,0.01,5.9405993860343e-07,-5.2765598748067e-09,1.1996141856395e-06,-1.4424070633804e-07,-9.1054329740842e-07,-3.340986230905e-08,1.4405322005238e-07
0.12,0.01,6.4590558499464e-07,-6.7381167430141e-09,1.3064644517596e-06,-1.7136133159167e-07,-9.9330382618471e-07,-3.9717945739181e-08,1.7093172665338e-07
0.13,0.01,6.9724901870015e-07,-8.429261573548e-09,1.4127972542974e-06,-2.008655764272e-07,-1.0760587825537e-06,-4.6589325161927e-08,2.0010690504979e-07
0.14,0.01,7.4806543161007e-07,-1.0361755730583e-08,1.5185855069818e-06,-2.3274900889203e-07,-1.1588073111311e-06,-5.4025017445039e-08,2.3156096353571e-07
0.15,0.01,7.9833182507133e-07,-1.2546584055839e-08,1.6238038041525e-06,-2.6700522158809e-07,-1.2415485130518e-06,-6.2025693936533e-08,2.6527392410608e-07
0.16,0.01,8.4802688038848e-07,-1.4994011335e-08,1.7284282982193e-06,-3.0362608374446e-07,-1.3242814491236e-06,-7.0591733196245e-08,3.0122396251351e-07
0.17,0.01,8.9713083880633e-07,-1.7713634546826e-08,1.8324365865809e-06,-3.4260193740429e-07,-1.4070051428009e-06,-7.972326123681e-08,3.393876842911e-07
0.18,0.01,9.4562539026865e-07,-2.0714431214697e-08,1.9358076072576e-06,-3.8392175309936e-07,-1.4897185829807e-06,-8.9420182780509e-08,3.7974035275789e-07
0.19,0.01,9.9349357030228e-07,-2.4004804154215e-08,2.03852154255e-06,-4.2757325555462e-07,-1.5724207266315e-06,-9.9682205926691e-08,4.2225608014311e-07
0.2,0.01,1.0407196644262e-06,-2.7592622887038e-08,2.1405597300988e-06,-4.7354302681974e-07,-1.6551105012606e-06,-1.1050886190161e-07,4.6690798977535e-07
0.21,0.01,1.0872891195309e-06,-3.1485261969897e-08,2.2419045807687e-06,-5.2181659212525e-07,-1.7377868072294e-06,-1.2189952108118e-07,5.1366835514338e-07
0.22,0.01,1.1331884617161e-06,-3.5689636468431e-08,2.3425395028282e-06,-5.7237849232898e-07,-1.8204485199248e-06,-1.3385340614935e-07,5.6250872016559e-07
0.23,0.01,1.1784052201121e-06,-4.0212234787845e-08,2.4424488319368e-06,-6.2521234582083e-07,-1.9030944917944e-06,-1.463696030276e-07,6.1340000397313e-07
0.24,0.01,1.2229278562471e-06,-4.5059149056255e-08,2.5416177664945e-06,-6.8030090204751e-07,-1.9857235542551e-06,-1.5944707005018e-07,6.6631259277238e-07
0.25,0.01,1.2667456985539e-06,-5.0236103241755e-08,2.6400323079378e-06,-7.3762608830834e-07,-2.0683345194809e-06,-1.7308464574457e-07,7.2121642081187e-07
0.26,0.01,1.3098488816413e-06,-5.5748479170646e-08,2.7376792056054e-06,-7.9716905110062e-07,-2.1509261820799e-06,-1.872810554926e-07,7.7808104207703e-07
0.27,0.01,1.3522282899818e-06,-6.160134060168e-08,2.8345459058196e-06,-8.5891019301498e-07,-2.2334973206651e-06,-2.0203491728558e-07,8.3687569403229e-07
0.28,0.01,1.3938755056936e-06,-6.779945549968e-08,2.9306205048635e-06,-9.2282920597298e-07,-2.3160466993279e-06,-2.1734474674047e-07,8.9756935449626e-07
0.29,0.01,1.4347827601185e-06,-7.434731664117e-08,3.025891705553e-06,-9.8890510143966e-07,-2.3985730690198e-06,-2.3320896150913e-07,9.6013079255355e-07
0.3,0.01,1.4749428889197e-06,-8.1249160674859e-08,3.120348777131e-06,-1.0571162381213e-06,-2.4810751688482e-06,-2.4962588518579e-07,1.0245286142627e-06
0.31,0.01,1.5143492904428e-06,-8.8508985750725e-08,3.2139815182284e-06,-1.1274403475632e-06,-2.5635517272926e-06,-2.6659375079723e-07,1.0907313038041e-06
0.32,0.01,1.5529958871026e-06,-9.6130567823026e-08,3.3067802226575e-06,-1.1998545579865e-06,-2.6460014633461e-06,-2.8411070394416e-07,1.158707260618e-06
0.33,0.01,1.5908770895771e-06,-1.0411747572485e-07,3.3987356478225e-06,-1.2743354166436e-06,-2.7284230875877e-06,-3.0217480564953e-07,1.228424833006e-06
0.34,0.01,1.6279877636018e-06,-1.1247308510458e-07,3.4898389855468e-06,-1.3508589109253e-06,-2.8108153031894e-06,-3.2078403495945e-07,1.2998523486055e-06
0.35,0.01,1.6643231991794e-06,-1.2120059130809e-07,3.5800818351323e-06,-1.4294004884097e-06,-2.8931768068634e-06,-3.3993629133467e-07,1.3729581420935e-06
0.36,0.01,1.6998790820255e-06,-1.3030302128422e-07,3.6694561784807e-06,-1.5099350760178e-06,-2.9755062897526e-06,-3.5962939686377e-07,1.4477105804308e-06
0.37,0.01,1.7346514670911e-06,-1.3978324458561e-07,3.7579543571191e-06,-1.5924370984086e-06,-3.0578024382685e-06,-3.798610983243e-07,1.52407808592e-06
0.38,0.01,1.7686367540087e-06,-1.496439835314e-07,3.8455690509854e-06,-1.6768804957293e-06,-3.140063934881e-06,-4.0062906911383e-07,1.6020291573174e-06
0.39,0.01,1.8018316643249e-06,-1.5988782259378e-07,3.932293258838e-06,-1.7632387408167e-06,-3.2222894588619e-06,-4.2193091106933e-07,1.6815323892113e-06
0.4,0.01,1.8342332203871e-06,-1.7051721706556e-07,4.0181202801657e-06,-1.8514848559315e-06,-3.3044776869858e-06,-4.4376415619052e-07,1.7625564898536e-06
0.41,0.01,1.865838725766e-06,-1.81534501062e-07,4.1030436984849e-06,-1.9415914290945e-06,-3.3866272941923e-06,-4.6612626828041e-07,1.8450702976122e-06
0.42,0.01,1.8966457471024e-06,-1.9294189490604e-07,4.1870573659152e-06,-2.033530630083e-06,-3.4687369542102e-06,-4.8901464451439e-07,1.9290427961912e-06
0.43,0.01,1.9266520972741e-06,-2.047415119427e-07,4.2701553889381e-06,-2.1272742261379e-06,-3.5508053401482e-06,-5.1242661694754e-07,2.0144431287512e-06
0.44,0.01,1.9558558197867e-06,-2.1693536482497e-07,4.3523321152469e-06,-2.2227935974227e-06,-3.6328311250528e-06,-5.3635945396834e-07,2.1012406110464e-06
0.45,0.01,1.9842551743013e-06,-2.2952537131044e-07,4.4335821216036e-06,-2.32005975227e-06,-3.7148129824364e-06,-5.6081036170595e-07,2.1894047436831e-06
0.46,0.01,2.011848623214e-06,-2.4251335960514e-07,4.5139002026273e-06,-2.4190433422459e-06,-3.7967495867777e-06,-5.857764853973e-07,2.2789052235937e-06
0.47,0.01,2.0386348192123e-06,-2.5590107328839e-07,4.5932813604405e-06,-2.5197146770568e-06,-3.8786396139958e-06,-6.1125491071907e-07,2.3697119548085e-06
0.48,0.01,2.0646125937369e-06,-2.6969017584987e-07,4.6717207951084e-06,-2.6220437393199e-06,-3.9604817418997e-06,-6.3724266508932e-07,2.4617950586005e-06
0.49,0.01,2.0897809462829e-06,-2.838822548682e-07,4.7492138958097e-06,-2.7260001992139e-06,-4.0422746506151e-06,-6.6373671894263e-07,2.5551248830708e-06
0.5,0.01,2.1141390344785e-06,-2.9847882585778e-07,4.8257562326822e-06,-2.8315534290255e-06,-4.1240170229902e-06,-6.9073398698226e-07,2.6496720122319e-06
0.51,0.01,2.1376861648862e-06,-3.1348133580899e-07,4.9013435492916e-06,-2.9386725176017e-06,-4.2057075449809e-06,-7.1823132941225e-07,2.745407274646e-06
0.52,0.01,2.160421784472e-06,-3.2889116644499e-07,4.9759717556737e-06,-3.0473262847174e-06,-4.2873449060179e-06,-7.4622555315203e-07,2.8423017516625e-06
0.53,0.01,2.1823454726941e-06,-3.447096372166e-07,5.0496369219071e-06,-3.1574832953654e-06,-4.3689277993561e-06,-7.7471341303591e-07,2.9403267853012e-06
0.54,0.01,2.2034569341671e-06,-3.6093800805523e-07,5.1223352721739e-06,-3.2691118739746e-06,-4.450454922407e-06,-8.0369161299924e-07,3.0394539858167e-06
0.55,0.01,2.223755991857e-06,-3.7757748190237e-07,5.1940631792701e-06,-3.3821801185577e-06,-4.5319249770571e-06,-8.3315680725299e-07,3.1396552389818e-06
0.56,0.01,2.2432425807705e-06,-3.9462920703295e-07,5.2648171595313e-06,-3.4966559147938e-06,-4.6133366699702e-06,-8.6310560144823e-07,3.2409027131175e-06
0.57,0.01,2.2619167421005e-06,-4.1209427918829e-07,5.3345938681395e-06,-3.6125069500444e-06,-4.694688712877e-06,-8.9353455383175e-07,3.3431688659011e-06
0.58,0.01,2.2797786177948e-06,-4.2997374353372e-07,5.4033900947829e-06,-3.7297007273034e-06,-4.7759798228523e-06,-9.2444017639386e-07,3.4464264509754e-06
0.59,0.01,2.2968284455169e-06,-4.4826859645437e-07,5.471202759638e-06,-3.8482045790809e-06,-4.8572087225787e-06,-9.5581893600933e-07,3.5506485243816e-06
0.6,0.01,2.3130665539694e-06,-4.6697978720197e-07,5.5380289096507e-06,-3.9679856812182e-06,-4.9383741406008e-06,-9.8766725557223e-07,3.6558084508383e-06
0.61,0.01,2.3284933585534e-06,-4.8610821940447e-07,5.6038657150909e-06,-4.0890110666311e-06,-5.0194748115671e-06,-1.0199815151254e-06,3.7618799098826e-06
0.62,0.01,2.3431093573385e-06,-5.0565475244941e-07,5.6687104663587e-06,-4.2112476389805e-06,-5.1005094764627e-06,-1.052758052985e-06,3.8688369018921e-06
0.63,0.01,2.3569151273208e-06,-5.2562020275132e-07,5.7325605710228e-06,-4.3346621862639e-06,-5.181476882832e-06,-1.0859931668608e-06,3.9766537540019e-06
0.64,0.01,2.3699113209463e-06,-5.4600534491237e-07,5.79541355107e-06,-4.4592213943258e-06,-5.2623757849928e-06,-1.1196831149718e-06,4.0853051259304e-06
0.65,0.01,2.3820986628815e-06,-5.6681091278529e-07,5.8572670403512e-06,-4.5848918602823e-06,-5.3432049442413e-06,-1.1538241171596e-06,4.194766015727e-06
0.66,0.01,2.39347794701e-06,-5.8803760044646e-07,5.918118782205e-06,-4.7116401058546e-06,-5.423963129049e-06,-1.1884123559961e-06,4.3050117654527e-06
0.67,0.01,2.4040500336408e-06,-6.0968606308681e-07,5.9779666272457e-06,-4.8394325906065e-06,-5.5046491152524e-06,-1.22344397789e-06,4.4160180668047e-06
0.68,0.01,2.4138158469096e-06,-6.317569178275e-07,6.0368085313009e-06,-4.9682357250818e-06,-5.5852616862345e-06,-1.2589150941885e-06,4.5277609666945e-06
0.69,0.01,2.4227763723602e-06,-6.5425074446685e-07,6.0946425534868e-06,-5.0980158838345e-06,-5.6657996331e-06,-1.294821782277e-06,4.6402168727876e-06
0.7,0.01,2.4309326546914e-06,-6.7716808616445e-07,6.1514668544086e-06,-5.2287394183484e-06,-5.7462617548433e-06,-1.3311600866744e-06,4.7533625590152e-06
0.71,0.01,2.4382857956568e-06,-7.005094500682e-07,6.2072796944751e-06,-5.3603726698387e-06,-5.8266468585102e-06,-1.3679260201267e-06,4.8671751710642e-06
0.72,0.01,2.4448369521047e-06,-7.2427530788919e-07,6.2620794323184e-06,-5.4928819819307e-06,-5.906953759354e-06,-1.4051155646961e-06,4.9816322318523e-06
0.73,0.01,2.4505873341494e-06,-7.4846609642945e-07,6.3158645233082e-06,-5.6262337132112e-06,-5.9871812809846e-06,-1.4427246728478e-06,5.0967116469975e-06
0.74,0.01,2.4555382034609e-06,-7.7308221806676e-07,6.3686335181523e-06,-5.7603942496442e-06,-6.0673282555128e-06,-1.4807492685324e-06,5.2123917102864e-06
0.75,0.01,2.4596908716654e-06,-7.9812404120084e-07,6.4203850615767e-06,-5.8953300168481e-06,-6.1473935236894e-06,-1.5191852482662e-06,5.3286511091478e-06
0.76,0.01,2.4630466988476e-06,-8.2359190066452e-07,6.4711178910756e-06,-6.0310074922271e-06,-6.227375935038e-06,-1.5580284822063e-06,5.4454689301393e-06
0.77,0.01,2.4656070921452e-06,-8.4948609810358e-07,6.5208308357266e-06,-6.1673932169519e-06,-6.3072743479837e-06,-1.5972748152225e-06,5.5628246644501e-06
0.78,0.01,2.4673735044305e-06,-8.7580690232834e-07,6.5695228150644e-06,-6.3044538077841e-06,-6.3870876299768e-06,-1.6369200679658e-06,5.6806982134281e-06
0.79,0.01,2.4683474330698e-06,-9.0255454964019e-07,6.6171928380057e-06,-6.442155968739e-06,-6.4668146576115e-06,-1.6769600379315e-06,5.7990698941343e-06
0.8,0.01,2.4685304187552e-06,-9.2972924413565e-07,6.6638400018229e-06,-6.5804665025817e-06,-6.5464543167398e-06,-1.7173905005185e-06,5.9179204449319e-06
0.81,0.01,2.4679240444032e-06,-9.5733115799068e-07,6.7094634911583e-06,-6.7193523221509e-06,-6.6260055025823e-06,-1.7582072100839e-06,6.0372310311131e-06
0.82,0.01,2.466529934113e-06,-9.8536043172749e-07,6.7540625770779e-06,-6.8587804615059e-06,-6.7054671198329e-06,-1.7994059009925e-06,6.1569832505701e-06
0.83,0.01,2.4643497521815e-06,-1.0138171744662e-06,6.7976366161571e-06,-6.9987180868922e-06,-6.7848380827609e-06,-1.8409822886611e-06,6.2771591395136e-06
0.84,0.01,2.4613852021676e-06,-1.0427014641632e-06,6.8401850495975e-06,-7.13913250752e-06,-6.8641173153079e-06,-1.8829320705978e-06,6.3977411782445e-06
0.85,0.01,2.4576380260044e-06,-1.072013347838e-06,6.8817074023691e-06,-7.2799911861518e-06,-6.9433037511819e-06,-1.9252509274349e-06,6.5187122969826e-06
0.86,0.01,2.4531100031522e-06,-1.1017528417907e-06,6.9222032823765e-06,-7.4212617494953e-06,-7.0223963339464e-06,-1.9679345239565e-06,6.6400558817563e-06
0.87,0.01,2.4478029497912e-06,-1.1319199318113e-06,6.9616723796443e-06,-7.5629119983954e-06,-7.1013940171066e-06,-2.0109785101196e-06,6.7617557803572e-06
0.88,0.01,2.4417187180479e-06,-1.162514573382e-06,7.0001144655208e-06,-7.7049099178243e-06,-7.1802957641916e-06,-2.0543785220687e-06,6.8837963083636e-06
0.89,0.01,2.4348591952545e-06,-1.1935366918745e-06,7.037529391896e-06,-7.8472236866627e-06,-7.259100548833e-06,-2.0981301831439e-06,7.0061622552367e-06
0.9,0.01,2.4272263032362e-06,-1.2249861827436e-06,7.073917090433e-06,-7.9898216872713e-06,-7.3378073548403e-06,-2.1422291048818e-06,7.1288388904903e-06
0.91,0.01,2.4188219976246e-06,-1.2568629117167e-06,7.1092775718095e-06,-8.1326725148466e-06,-7.4164151762725e-06,-2.186670888009e-06,7.2518119699399e-06
0.92,0.01,2.4096482671951e-06,-1.2891667149826e-06,7.1436109249686e-06,-8.2757449865607e-06,-7.4949230175065e-06,-2.2314511234284e-06,7.3750677420308e-06
0.93,0.01,2.3997071332252e-06,-1.3218973993781e-06,7.1769173163759e-06,-8.4190081504788e-06,-7.5733298933024e-06,-2.2765653931974e-06,7.4985929542476e-06
0.94,0.01,2.3890006488712e-06,-1.3550547425754e-06,7.2091969892833e-06,-8.5624312942541e-06,-7.6516348288652e-06,-2.3220092714985e-06,7.6223748596066e-06
0.95,0.01,2.3775308985631e-06,-1.3886384932693e-06,7.2404502629958e-06,-8.7059839535971e-06,-7.7298368599036e-06,-2.3677783256005e-06,7.7464012232316e-06
0.96,0.01,2.3652999974138e-06,-1.4226483713658e-06,7.2706775321418e-06,-8.8496359205153e-06,-7.8079350326856e-06,-2.4138681168126e-06,7.8706603290115e-06
0.97,0.01,2.3523100906424e-06,-1.4570840681731e-06,7.2998792659449e-06,-8.993357251323e-06,-7.8859284040912e-06,-2.4602742014284e-06,7.9951409863404e-06
0.98,0.01,2.3385633530091e-06,-1.4919452465945e-06,7.3280560074963e-06,-9.1371182744188e-06,-7.9638160416614e-06,-2.5069921316614e-06,8.1198325369361e-06
0.99,0.01,2.3240619882612e-06,-1.5272315413241e-06,7.3552083730271e-06,-9.2808895978277e-06,-8.0415970236457e-06,-2.5540174565713e-06,8.2447248617356e-06
1,0.01,2.3088082285883e-06,-1.5629425590464e-06,7.3813370511797e-06,-9.4246421165082e-06,-8.1192704390447e-06,-2.6013457229801e-06,8.3698083878624e-06
1.01,0.01,2.1827143762061e-06,-1.59905668993e-06,7.1862321423502e-06,-9.1278796053211e-06,-8.0312773533198e-06,-2.5473158413145e-06,8.0772823352895e-06
1.02,0.01,2.056031555663e-06,-1.6355117265722e-06,6.9903024871708e-06,-8.8349078570936e-06,-7.943194005576e-06,-2.4940887728369e-06,7.793357953807e-06
1.03,0.01,1.9289110974758e-06,-1.6722294047527e-06,6.7937339423965e-06,-8.5459744846573e-06,-7.8550374011503e-06,-2.4416792218807e-06,7.5187282291931e-06
1.04,0.01,1.8014922519065e-06,-1.7091377641417e-06,6.5966972279434e-06,-8.2612970265939e-06,-7.7668230726652e-06,-2.3900999351832e-06,7.2541187547608e-06
1.05,0.01,1.6739032998029e-06,-1.7461705643971e-06,6.3993493370937e-06,-7.9810658119865e-06,-7.6785652198942e-06,-2.3393618872088e-06,7.0002999032376e-06
1.06,0.01,1.5462623280331e-06,-1.7832668769537e-06,6.2018345261121e-06,-7.7054462541694e-06,-7.5902768083827e-06,-2.2894744320053e-06,6.7580958123342e-06
1.07,0.01,1.4186779518063e-06,-1.8203707050327e-06,6.0042852347218e-06,-7.4345809848918e-06,-7.5019696609267e-06,-2.2404454440416e-06,6.5283865306554e-06
1.08,0.01,1.2912499874677e-06,-1.8574306299518e-06,5.8068229421972e-06,-7.1685918371976e-06,-7.4136545424219e-06,-2.1922814486964e-06,6.31209726077e-06
1.09,0.01,1.1640700791121e-06,-1.8943994819465e-06,5.6095589635062e-06,-6.9075816852826e-06,-7.3253412385587e-06,-2.1449877430459e-06,6.1101669774529e-06
1.1,0.01,1.0372222821354e-06,-1.9312340338326e-06,5.4125951896293e-06,-6.6516361494793e-06,-7.2370386288063e-06,-2.0985685075735e-06,5.9234893460306e-06
1.11,0.01,9.1078360663427e-07,-1.9678947159564e-06,5.2160247759023e-06,-6.4008251743378e-06,-7.1487547540948e-06,-2.0530269093966e-06,5.7528245461171e-06
1.12,0.01,7.8482452336934e-07,-2.0043453509795e-06,5.0199327819637e-06,-6.1552044875526e-06,-7.060496879577e-06,-2.0083651975795e-06,5.5986929255868e-06
1.13,0.01,6.5940943482331e-07,-2.040552907148e-06,4.8243967666457e-06,-5.914816947219e-06,-6.972271552823e-06,-1.9645847910723e-06,5.4612769987001e-06
1.14,0.01,5.3459711371715e-07,-2.076487268784e-06,4.6294873409189e-06,-5.6796937846208e-06,-6.884084657776e-06,-1.9216863597866e-06,5.3403668493391e-06
1.15,0.01,4.1044111118816e-07,-2.1121210228225e-06,4.4352686817877e-06,-5.4498557494435e-06,-6.7959414647747e-06,-1.8796698992928e-06,5.2353744967018e-06
1.16,0.01,2.8699013668651e-07,-2.1474292602996e-06,4.241799009836e-06,-5.2253141639923e-06,-6.7078466769239e-06,-1.838534799594e-06,5.1454161910472e-06
1.17,0.01,1.6428841150866e-07,-2.1823893917658e-06,4.0491310329388e-06,-5.0060718926695e-06,-6.6198044730777e-06,-1.7982799084063e-06,5.0694344766048e-06
1.18,0.01,4.2375997757564e-08,-2.2169809756745e-06,3.8573123584828e-06,-4.7921242326447e-06,-6.5318185476779e-06,-1.758903589349e-06,5.0063217624054e-06
1.19,0.01,-7.8710895600369e-08,-2.2511855588532e-06,3.6663858762806e-06,-4.583459731328e-06,-6.4438921476744e-06,-1.7204037754219e-06,4.9550164481262e-06
1.2,0.01,-1.9893962802365e-07,-2.2849865282309e-06,3.4763901142105e-06,-4.3800609359388e-06,-6.3560281067389e-06,-1.6827780181251e-06,4.9145600739421e-06
1.21,0.01,-3.1828086257595e-07,-2.3183689730463e-06,3.2873595684796e-06,-4.1819050801552e-06,-6.2682288769649e-06,-1.6460235325528e-06,4.8841179182077e-06
1.22,0.01,-4.3670831964247e-07,-2.3513195568174e-06,3.0993250102731e-06,-3.9889647125284e-06,-6.1804965582379e-06,-1.6101372387699e-06,4.8629719711641e-06
1.23,0.01,-5.5419854791733e-07,-2.3838263984e-06,2.9123137704363e-06,-3.8012082710557e-06,-6.0928329254414e-06,-1.5751157997624e-06,4.8504962142167e-06
1.24,0.01,-6.7073071148245e-07,-2.4158789615074e-06,2.72635000372e-06,-3.6186006080301e-06,-6.0052394536572e-06,-1.5409556562302e-06,4.8461229296602e-06
1.25,0.01,-7.8628639187717e-07,-2.4474679521091e-06,2.5414549340171e-06,-3.4411034690172e-06,-5.9177173415035e-06,-1.5076530584763e-06,4.849307396928e-06
1.26,0.01,-9.0084940413222e-07,-2.4785852231621e-06,2.3576470819176e-06,-3.2686759295585e-06,-5.8302675327455e-06,-1.4752040956255e-06,4.8594972322707e-06
1.27,0.01,-1.0144056258108e-06,-2.5092236861677e-06,2.1749424758215e-06,-3.1012747929593e-06,-5.7428907363044e-06,-1.443604722393e-06,4.8761113007456e-06
1.28,0.01,-1.1269428381639e-06,-2.5393772290814e-06,1.9933548477615e-06,-2.9388549522952e-06,-5.6555874447796e-06,-1.4128507836089e-06,4.8985310279333e-06
1.29,0.01,-1.2384505785672e-06,-2.5690406401338e-06,1.8128958150069e-06,-2.7813697195561e-06,-5.5683579515924e-06,-1.3829380366869e-06,4.9261041303304e-06
1.3,0.01,-1.3489200034632e-06,-2.5982095371525e-06,1.633575048451e-06,-2.6287711246488e-06,-5.481202366851e-06,-1.3538621722199e-06,4.9581580404906e-06
1.31,0.01,-1.4583437610855e-06,-2.6268803020013e-06,1.455400428709e-06,-2.4810101867908e-06,-5.394120632029e-06,-1.325618832867e-06,4.9940185960088e-06
1.32,0.01,-1.5667158732889e-06,-2.6550500197809e-06,1.2783781907945e-06,-2.338037160655e-06,-5.3071125335444e-06,-1.298203630692e-06,5.0330293838897e-06
1.33,0.01,-1.6740316258575e-06,-2.6827164224578e-06,1.102513058179e-06,-2.1998017594659e-06,-5.2201777153179e-06,-1.271612163101e-06,5.0745682302605e-06
1.34,0.01,-1.7802874667042e-06,-2.7098778366122e-06,9.2780836698633e-07,-2.0662533570978e-06,-5.1333156903848e-06,-1.2458400275199e-06,5.1180589798129e-06
1.35,0.01,-1.8854809114145e-06,-2.7365331350168e-06,7.5426618101724e-07,-1.9373411710909e-06,-5.04652585163e-06,-1.2208828349471e-06,5.1629782219014e-06
1.36,0.01,-1.9896104556257e-06,-2.7626816917772e-06,5.8188739825671e-07,-1.8130144283814e-06,-4.9598074817085e-06,-1.1967362225107e-06,5.2088576175072e-06
1.37,0.01,-2.0926754937666e-06,-2.788323340785e-06,4.1067184946585e-07,-1.69322251543e-06,-4.8731597622118e-06,-1.1733958651552e-06,5.2552829252521e-06
1.38,0.01,-2.1946762437156e-06,-2.8134583372495e-06,2.4061838942149e-07,-1.5779151143412e-06,-4.7865817821335e-06,-1.1508574865817e-06,5.3018908643939e-06
1.39,0.01,-2.2956136769657e-06,-2.838087322092e-06,7.1724981325883e-08,-1.4670423264845e-06,-4.7000725456867e-06,-1.1291168695658e-06,5.3483647755652e-06
1.4,0.01,-2.3954894539114e-06,-2.8622112890017e-06,-9.601122512762e-08,-1.3605547850644e-06,-4.6136309795188e-06,-1.1081698657778e-06,5.3944297908715e-06
1.41,0.01,-2.4943058639013e-06,-2.8858315539633e-06,-2.6259382158093e-07,-1.2584037580426e-06,-4.5272559393679e-06,-1.0880124052369e-06,5.4398479877039e-06
1.42,0.01,-2.5920657697232e-06,-2.9089497270847e-06,-4.2802707430987e-07,-1.1605412427892e-06,-4.4409462162013e-06,-1.0686405055381e-06,5.4844138105651e-06
1.43,0.01,-2.6887725562121e-06,-2.93156768656e-06,-5.9231586260496e-07,-1.0669200538415e-06,-4.354700541873e-06,-1.0500502810034e-06,5.5279499085861e-06
1.44,0.01,-2.7844300826919e-06,-2.9536875546184e-06,-7.5546562187222e-07,-9.7749390518064e-07,-4.2685175943356e-06,-1.0322379519289e-06,5.5703034460406e-06
1.45,0.01,-2.8790426389846e-06,-2.975311675318e-06,-9.1748229111749e-07,-8.922174885069e-07,-4.1823960024374e-06,-1.0151998541225e-06,5.6113428878283e-06
1.46,0.01,-2.9726149047351e-06,-2.9964425940547e-06,-1.0783722645027e-06,-8.1104654911853e-07,-4.0963343503351e-06,-9.9893244896656e-07,5.6509552309257e-06
1.47,0.01,-3.0651519118221e-06,-3.0170830386649e-06,-1.2381423466846e-06,-7.3393796118937e-07,-4.0103311815492e-06,-9.8343233428811e-07,5.6890436376904e-06
1.48,0.01,-3.1566590096375e-06,-3.0372359020112e-06,-1.3967997116686e-06,-6.6084980452883e-07,-3.9243850026859e-06,-9.6869625638921e-07,5.7255254215265e-06
1.49,0.01,-3.2471418330371e-06,-3.0569042259456e-06,-1.5543518649303e-06,-5.9174144532802e-07,-3.8384942868501e-06,-9.547211236887e-07,5.7603303356095e-06
1.5,0.01,-3.3366062727749e-06,-3.0760911865557e-06,-1.7108066085762e-06,-5.2657362400945e-07,-3.7526574767686e-06,-9.4150402256436e-07,5.7933991184479e-06
1.51,0.01,-3.4250584482521e-06,-3.094800080606e-06,-1.8661720093344e-06,-4.6530855419518e-07,-3.6668729876431e-06,-9.2904223618268e-07,5.8246822543546e-06
1.52,0.01,-3.5125046824204e-06,-3.1130343130912e-06,-2.0204563691825e-06,-4.0791003813381e-07,-3.5811392097505e-06,-9.1733326739296e-07,5.8541389113815e-06
1.53,0.01,-3.598957224368e-06,-3.1308010154033e-06,-2.17367657942e-06,-3.5434307575798e-07,-3.4954584625456e-06,-8.1797651676403e-07,5.4680568860862e-06
1.54,0.01,-3.6844394825922e-06,-3.1481147668507e-06,-2.3258674147482e-06,-3.0457429890431e-07,-3.4098411987676e-06,-7.1449362416978e-07,5.0098783709375e-06
1.55,0.01,-3.7689789742434e-06,-3.1649934680886e-06,-2.477072608852e-06,-2.5857333007038e-07,-3.324301616181e-06,-6.1926868993629e-07,4.5842706734584e-06
1.56,0.01,-3.8526005289231e-06,-3.1814534787451e-06,-2.6273327366193e-06,-2.1631276158265e-07,-3.2388521495901e-06,-5.3216688785645e-07,4.1909450315615e-06
1.57,0.01,-3.9353275344675e-06,-3.1975086063399e-06,-2.7766835302887e-06,-1.7776762214073e-07,-3.1535033525016e-06,-4.4123691725172e-07,3.7650731627903e-06
1.58,0.01,-4.0171888429193e-06,-3.2131662186934e-06,-2.9251599184095e-06,-1.4291613455183e-07,-3.0682645329727e-06,-3.601272572527e-07,3.097794919885e-06
1.59,0.01,-4.0982216001145e-06,-3.2284249052684e-06,-3.0727986842288e-06,-1.1174116779626e-07,-2.9831430524652e-06,-2.8743157048036e-07,2.494459569656e-06
1.6,0.01,-4.1784623342371e-06,-3.2432799276939e-06,-3.2196340088259e-06,-8.4231316584358e-08,-2.8981439832168e-06,-2.2304132040974e-07,1.9547705030785e-06
1.61,0.01,-4.2579409960937e-06,-3.2577274954214e-06,-3.3656940709396e-06,-6.0382641823522e-08,-2.8132704313158e-06,-1.6685256329653e-07,1.4785302127738e-06
1.62,0.01,-4.3366815760987e-06,-3.2717647483306e-06,-3.5110015294202e-06,-4.0202340881791e-08,-2.7285236966083e-06,-1.1876690709718e-07,1.0656704140613e-06
1.63,0.01,-4.4147025808511e-06,-3.2853897234287e-06,-3.6555739482054e-06,-2.3715818396564e-08,-2.6439034279808e-06,-7.8694807890807e-08,7.1631556838459e-07
1.64,0.01,-4.492017466313e-06,-3.2986013311981e-06,-3.7994241794362e-06,-1.0982474569495e-08,-2.5594077649951e-06,-4.65625191021e-08,4.3090527000069e-07
1.65,0.01,-4.5686350248254e-06,-3.3113993450309e-06,-3.9425607007723e-06,-2.1407049158838e-09,-2.4750334651378e-06,-2.232864669516e-08,2.1046757328371e-07
1.66,0.01,-4.6445597134688e-06,-3.3237844120182e-06,-4.0849878923809e-06,2.3738520984538e-09,-2.3907760128024e-06,-6.0312845960368e-09,5.7398608767915e-08
1.67,0.01,-4.719791301052e-06,-3.3357582921623e-06,-4.2267056444447e-06,2.5407558994453e-09,-2.3066294846378e-06,-2.1148477966125e-09,2.0332791958205e-08
1.68,0.01,-4.7943250077831e-06,-3.3473239329401e-06,-4.3677093325366e-06,2.5342582977275e-09,-2.222586647622e-06,-1.7511151436661e-09,2.0146880597223e-08
1.69,0.01,-4.8681539922514e-06,-3.3584848684002e-06,-4.5079921258993e-06,2.5279281317878e-09,-2.1386398792277e-06,-1.4050815687576e-09,2.002919967063e-08
1.7,0.01,-4.9412717413774e-06,-3.3692446385082e-06,-4.6475474327987e-06,2.5217560297152e-09,-2.0547819572545e-06,-1.0787252014876e-09,1.9987560289456e-08
1.71,0.01,-5.0136725189424e-06,-3.3796066210101e-06,-4.7863693607425e-06,2.5157312149988e-09,-1.9710061961484e-06,-7.7255246316051e-10,2.0024547422641e-08
1.72,0.01,-5.085351261484e-06,-3.3895740156543e-06,-4.9244525355487e-06,2.5098424670809e-09,-1.8873064070875e-06,-4.3483545016802e-10,1.9990363939272e-08
1.73,0.01,-5.1563035243322e-06,-3.3991498596598e-06,-5.0617920556046e-06,2.5040794186718e-09,-1.8036768627344e-06,-8.5499953812919e-11,1.9902081862814e-08
1.74,0.01,-5.2265254000649e-06,-3.4083370186308e-06,-5.1983834195824e-06,2.4984312486754e-09,-1.7201122761497e-06,2.4932403798885e-10,1.981521833361e-08
1.75,0.01,-5.2960134988244e-06,-3.4171382151455e-06,-5.3342225394425e-06,2.4928882704673e-09,-1.636607763615e-06,5.6406846340798e-10,1.9731834733086e-08
1.76,0.01,-5.364764907348e-06,-3.4255560474287e-06,-5.4693057602903e-06,2.4874427739722e-09,-1.5531587992186e-06,8.5523519013796e-10,1.9653308675815e-08
1.77,0.01,-5.4327770941174e-06,-3.4335929682192e-06,-5.6036296852763e-06,2.4820864052302e-09,-1.4697611993978e-06,1.1211778258828e-09,1.9580437958775e-08
1.78,0.01,-5.500047909688e-06,-3.441251310958e-06,-5.7371911198524e-06,2.4768105240868e-09,-1.3864111064353e-06,1.3617175348712e-09,1.9513564763401e-08
1.79,0.01,-5.5665755937063e-06,-3.4485333180012e-06,-5.8699872158396e-06,2.4716086899997e-09,-1.3031049461619e-06,1.5777229733652e-09,1.9452697887703e-08
1.8,0.01,-5.6323587283279e-06,-3.4554411725556e-06,-6.0020154739144e-06,2.4664761789312e-09,-1.2198393931857e-06,1.7707328605314e-09,1.9397619466694e-08
1.81,0.01,-5.6973962017374e-06,-3.4619769631187e-06,-6.1332736449674e-06,2.4614070989864e-09,-1.1366113687869e-06,1.9426549511647e-09,1.9347970593141e-08
1.82,0.01,-5.7616871774495e-06,-3.4681426171183e-06,-6.2637596809252e-06,2.4563941784862e-09,-1.0534180415702e-06,2.0955462563613e-09,1.9303315579086e-08
1.83,0.01,-5.8252310729196e-06,-3.4739400029483e-06,-6.3934717699471e-06,2.4514331404293e-09,-9.7025678416993e-07,2.2314645416722e-09,1.9263187444831e-08
1.84,0.01,-5.8880275639905e-06,-3.4793709643432e-06,-6.5224083181065e-06,2.4465209521795e-09,-8.8712514911514e-07,2.3523755823537e-09,1.9227118436206e-08
1.85,0.01,-5.9500765559305e-06,-3.4844372374939e-06,-6.6505678699124e-06,2.4416520816738e-09,-8.0402088256523e-07,2.4601010025664e-09,1.919465926928e-08
1.86,0.01,-6.0113781112722e-06,-3.4891404719978e-06,-6.7779491935277e-06,2.4368220271596e-09,-7.2094190249829e-07,2.5562940967617e-09,1.916539021468e-08
1.87,0.01,-6.071932469358e-06,-3.4934822941754e-06,-6.904551234855e-06,2.4320284503127e-09,-6.3788626967973e-07,2.6424337178115e-09,1.9138926623256e-08
1.88,0.01,-6.1317400888744e-06,-3.4974642924959e-06,-7.0303729561632e-06,2.4272676865248e-09,-5.5485219392186e-07,2.7198291064009e-09,1.9114920807634e-08
1.89,0.01,-6.1908015908642e-06,-3.5010879553562e-06,-7.1554134983179e-06,2.4225357506878e-09,-4.7183802723136e-07,2.7896309299522e-09,1.9093061583573e-08
1.9,0.01,-6.249117700203e-06,-3.5043547013205e-06,-7.2796721764948e-06,2.41782987172e-09,-3.8884224430146e-07,2.8528453603546e-09,1.9073072423793e-08
1.91,0.01,-6.3066892625101e-06,-3.5072659417855e-06,-7.4031483083772e-06,2.4131474941721e-09,-3.0586343438538e-07,2.9103491356373e-09,1.9054708873334e-08
1.92,0.01,-6.3635172569304e-06,-3.5098230465201e-06,-7.5258413784096e-06,2.4084868581232e-09,-2.2290028552342e-07,2.9629044052724e-09,1.9037755648784e-08
1.93,0.01,-6.41960278441e-06,-3.5120273459374e-06,-7.6477510252801e-06,2.4038463416143e-09,-1.3995157709e-07,3.0111727053411e-09,1.9022023675888e-08
1.94,0.01,-6.4749470452715e-06,-3.5138801562281e-06,-7.7688768553708e-06,2.3992235546421e-09,-5.7016183380687e-08,3.0557277263649e-09,1.9007347227017e-08
1.95,0.01,-6.5295513220276e-06,-3.5153827493791e-06,-7.8892185465003e-06,2.3946165908117e-09,2.5906936801567e-08,3.0970667590855e-09,1.8993581235025e-08
1.96,0.01,-6.5834169613707e-06,-3.5165363401794e-06,-8.0087759159658e-06,2.3900234002933e-09,1.0881874386569e-07,3.1356208185994e-09,1.8980598822206e-08
1.97,0.01,-6.6365453529066e-06,-3.5173420879002e-06,-8.1275488490884e-06,2.3854415018359e-09,1.917201166719e-07,3.1717635184518e-09,1.8968289080859e-08
1.98,0.01,-6.6889379685368e-06,-3.5178011352513e-06,-8.2455372963419e-06,2.3808700872575e-09,2.7461187438669e-07,3.2058188148073e-09,1.8956555079217e-08
1.99,0.01,-6.7405963474442e-06,-3.5179146259505e-06,-8.3627412751159e-06,2.3763087105716e-09,3.5749478455983e-07,3.238067711241e-09,1.8945312091661e-08
2,0.01,-6.7915220577569e-06,-3.5176836862512e-06,-8.4791608412382e-06,2.3717560760712e-09,4.40369557079e-07,3.2687540479533e-09,1.8934486058812e-08
2.01,0.01,-6.8417098244709e-06,-3.5171059588526e-06,-8.6498559528564e-06,3.5015423367469e-09,5.2323685123435e-07,3.122682165616e-09,1.894690108297e-08
2.02,0.01,-6.891141151858e-06,-3.516172372777e-06,-8.8197456448774e-06,3.4968466594982e-09,6.0609727570208e-07,3.0013892969422e-09,1.8956315125461e-08
2.03,0.01,-6.9397922886044e-06,-3.514871161513e-06,-8.9888101090996e-06,3.4920088181403e-09,6.8895139938101e-07,2.9011231774185e-09,1.8963267629462e-08
2.04,0.01,-6.9876415113785e-06,-3.5131915728636e-06,-9.1570311766477e-06,3.4870409485374e-09,7.7179975954099e-07,2.8186602858361e-09,1.8968182991547e-08
2.05,0.01,-7.0346688612823e-06,-3.5111237199809e-06,-9.3243920657632e-06,3.4819518641159e-09,8.5464284601626e-07,2.7512504059934e-09,1.897139759735e-08
2.06,0.01,-7.0808560851862e-06,-3.5086585355431e-06,-9.4908773115492e-06,3.4767505634887e-09,9.3748111156669e-07,2.6965584670144e-09,1.8973180092447e-08
2.07,0.01,-7.1261865388029e-06,-3.5057877283381e-06,-9.6564727220687e-06,3.4714457859983e-09,1.0203149779536e-06,2.6526086437673e-09,1.8973746578871e-08
2.08,0.01,-7.1706450036764e-06,-3.5025036825594e-06,-9.8211652440727e-06,3.4660438735383e-09,1.1031448257524e-06,2.6177330874619e-09,1.8973272064706e-08
2.09,0.01,-7.2142175978268e-06,-3.4987994591162e-06,-9.9849428783249e-06,3.4605523955616e-09,1.1859710109798e-06,2.5905262186348e-09,1.897189917222e-08
2.1,0.01,-7.2568917013713e-06,-3.4946687210639e-06,-1.0147794585404e-05,3.4549779138225e-09,1.2687938643734e-06,2.5698047491081e-09,1.896974480291e-08
2.11,0.01,-7.2986558866608e-06,-3.4901056007971e-06,-1.0309710193876e-05,3.4493247692865e-09,1.3516136802682e-06,2.554573152185e-09,1.8966905276667e-08
2.12,0.01,-7.339499795121e-06,-3.4851047447998e-06,-1.0470680360545e-05,3.4435982542269e-09,1.4344307294697e-06,2.5439941057711e-09,1.8963460329693e-08
2.13,0.01,-7.3794140337514e-06,-3.4796613216876e-06,-1.0630696523433e-05,3.4378036832102e-09,1.5172452647358e-06,2.5373633562323e-09,1.8959476248631e-08
2.14,0.01,-7.4183901252027e-06,-3.4737709242653e-06,-1.0789750893675e-05,3.4319459605548e-09,1.600057521408e-06,2.5340884361325e-09,1.8955008344311e-08
2.15,0.01,-7.4564204294525e-06,-3.467429563143e-06,-1.0947836335934e-05,3.4260287667353e-09,1.682867713664e-06,2.5336707151328e-09,1.8950102922611e-08
2.16,0.01,-7.4934980991051e-06,-3.4606336362809e-06,-1.1104946249376e-05,3.4200554984471e-09,1.7656760361223e-06,2.5356902888833e-09,1.8944798861895e-08
2.17,0.01,-7.5296170415295e-06,-3.4533798497473e-06,-1.1261074650332e-05,3.4140309900168e-09,1.8484826757764e-06,2.5397932780228e-09,1.8939128882487e-08
2.18,0.01,-7.5647718940838e-06,-3.4456652850789e-06,-1.1416216078083e-05,3.4079592813035e-09,1.9312878126582e-06,2.5456811890138e-09,1.8933120581334e-08
2.19,0.01,-7.598957875858e-06,-3.437487384137e-06,-1.1570365437885e-05,3.4018419924579e-09,2.0140916065065e-06,2.5531019861626e-09,1.8926797269385e-08
2.2,0.01,-7.6321706911832e-06,-3.4288437784675e-06,-1.1723518011152e-05,3.3956802022947e-09,2.0968941906601e-06,2.5618425955093e-09,1.8920178658445e-08
2.21,0.01,-7.6644066487676e-06,-3.4197323122004e-06,-1.1875669543633e-05,3.3894774374295e-09,2.1796956934121e-06,2.5717226493585e-09,1.8913281446995e-08
2.22,0.01,-7.695662567937e-06,-3.4101510740947e-06,-1.2026816218609e-05,3.3832365409369e-09,2.2624962356199e-06,2.5825892379894e-09,1.8906119787749e-08
2.23,0.01,-7.7259357015811e-06,-3.4000983556087e-06,-1.2176954607069e-05,3.3769592957343e-09,2.3452959214555e-06,2.5943125018535e-09,1.8898705659681e-08
2.24,0.01,-7.7552237417534e-06,-3.3895726671535e-06,-1.2326081610662e-05,3.3706481926021e-09,2.4280948507919e-06,2.6067819645939e-09,1.889104918922e-08
2.25,0.01,-7.783524714001e-06,-3.3785727162057e-06,-1.2474194349e-05,3.3643042823215e-09,2.510893114204e-06,2.6199034543316e-09,1.8883158919336e-08
2.26,0.01,-7.8108370061097e-06,-3.3670973811879e-06,-1.2621290221231e-05,3.3579293711484e-09,2.5936907952435e-06,2.6335965080067e-09,1.8875042046247e-08
2.27,0.01,-7.8371593778099e-06,-3.3551457016034e-06,-1.2767366928643e-05,3.3515259671398e-09,2.6764879757136e-06,2.6477922008284e-09,1.886670461414e-08
2.28,0.01,-7.8624908941487e-06,-3.3427168623255e-06,-1.2912422407694e-05,3.3450955553129e-09,2.759284731091e-06,2.6624313273656e-09,1.8858151668937e-08
2.29,0.01,-7.886830901557e-06,-3.3298101823207e-06,-1.3056454811995e-05,3.3386395113018e-09,2.8420811310171e-06,2.6774628727293e-09,1.8849387392998e-08
2.3,0.01,-7.9101789887481e-06,-3.316425120363e-06,-1.3199462509265e-05,3.3321595223606e-09,2.9248772437686e-06,2.6928427280894e-09,1.8840415213241e-08
2.31,0.01,-7.9325349842822e-06,-3.3025612479575e-06,-1.3341444051225e-05,3.3256567391028e-09,3.0076731323522e-06,2.7085326090076e-09,1.8831237904616e-08
2.32,0.01,-7.9538989711383e-06,-3.2882182081224e-06,-1.3482398132106e-05,3.319131403801e-09,3.0904688468764e-06,2.7244991458419e-09,1.8821857682894e-08
2.33,0.01,-7.9742712497467e-06,-3.2733957576503e-06,-1.3622323613336e-05,3.3125849791896e-09,3.1732644376529e-06,2.7407131183097e-09,1.881227625444e-08
2.34,0.01,-7.9936522862539e-06,-3.2580937585413e-06,-1.3761219515682e-05,3.3060188238294e-09,3.2560599551216e-06,2.7571488073694e-09,1.8802494877142e-08
2.35,0.01,-8.0120427119152e-06,-3.2423121444093e-06,-1.3899085013681e-05,3.2994337820698e-09,3.3388554443217e-06,2.773783454857e-09,1.8792514433255e-08
2.36,0.01,-8.029443346218e-06,-3.2260509308754e-06,-1.4035919411887e-05,3.292831864799e-09,3.4216509576397e-06,2.7905968011194e-09,1.8782335452943e-08
2.37,0.01,-8.0458551039372e-06,-3.209310172641e-06,-1.4171722059444e-05,3.2862124886206e-09,3.5044465341919e-06,2.80757067679e-09,1.8771958137693e-08
2.38,0.01,-8.0612789659424e-06,-3.1920899777025e-06,-1.4306492451732e-05,3.2795747087479e-09,3.5872421922373e-06,2.8246886735296e-09,1.8761382414124e-08
2.39,0.01,-8.0757160682289e-06,-3.1743905366715e-06,-1.4440230217491e-05,3.2729201071693e-09,3.6700379552516e-06,2.8419358818387e-09,1.8750607959069e-08
2.4,0.01,-8.0891676995573e-06,-3.1562120987732e-06,-1.4572935029064e-05,3.266249741669e-09,3.7528338539284e-06,2.859298649593e-09,1.8739634202561e-08
2.41,0.01,-8.1016352673376e-06,-3.1375549745265e-06,-1.4704606679436e-05,3.2595645909142e-09,3.8356299186301e-06,2.876764374175e-09,1.8728460369701e-08
2.42,0.01,-8.1131202452428e-06,-3.1184195130878e-06,-1.4835244965561e-05,3.2528643556416e-09,3.9184261694457e-06,2.894321333513e-09,1.8717085507136e-08
2.43,0.01,-8.1236241575632e-06,-3.0988060865844e-06,-1.4964849691218e-05,3.2461491642471e-09,4.0012226255844e-06,2.9119585335984e-09,1.8705508468868e-08
2.44,0.01,-8.1331486130911e-06,-3.0787151149139e-06,-1.5093420808149e-05,3.239421156362e-09,4.0840193164336e-06,2.9296655707135e-09,1.8693727929755e-08
2.45,0.01,-8.1416952913049e-06,-3.0581470752964e-06,-1.5220958391504e-05,3.232681104513e-09,4.1668162678916e-06,2.9474325253011e-09,1.8681742412646e-08
2.46,0.01,-8.1492659461854e-06,-3.037102470221e-06,-1.5347462531052e-05,3.2259281230957e-09,4.2496134971346e-06,2.9652498895328e-09,1.8669550300921e-08
2.47,0.01,-8.1558623899658e-06,-3.015581780882e-06,-1.5472933272161e-05,3.2191614043169e-09,4.3324110121669e-06,2.9831084737011e-09,1.8657149834908e-08
2.48,0.01,-8.1614864810115e-06,-2.9935855191403e-06,-1.5597370740687e-05,3.2123818064681e-09,4.4152088207655e-06,3.0009993206338e-09,1.8644539106024e-08
2.49,0.01,-8.1661401231902e-06,-2.9711142493218e-06,-1.5720775158903e-05,3.2055905276874e-09,4.4980069363852e-06,3.018913662156e-09,1.863171607201e-08
2.5,0.01,-8.1698252091254e-06,-2.9481685389537e-06,-1.5843146832158e-05,3.1987882764302e-09,4.5808053732119e-06,3.0368428666728e-09,1.8618678566146e-08
2.51,0.01,-8.1725436785606e-06,-2.9247489831341e-06,-1.5964486108312e-05,3.1919757120024e-09,4.6636041494081e-06,3.0547783977115e-09,1.8605424292762e-08
2.52,0.01,-8.1742975840644e-06,-2.9008562110002e-06,-1.6084793271157e-05,3.1851522620327e-09,4.7464032765237e-06,3.0727117788509e-09,1.8591950837436e-08
2.53,0.01,-8.175088978944e-06,-2.8764908786372e-06,-1.6204068631362e-05,3.1783181910681e-09,4.8292027640636e-06,3.0906345356876e-09,1.8578255648438e-08
2.54,0.01,-8.1749198831941e-06,-2.8516536435269e-06,-1.6322312520765e-05,3.1714741483037e-09,4.9120026280721e-06,3.1085381743159e-09,1.856433603423e-08
2.55,0.01,-8.1737923749891e-06,-2.8263451441009e-06,-1.6439525283162e-05,3.1646199482406e-09,4.9948028801581e-06,3.1264141729799e-09,1.8550189190646e-08
2.56,0.01,-8.1717085492267e-06,-2.8005660302629e-06,-1.6555707345774e-05,3.1577562105304e-09,5.0776035280525e-06,3.1442539285437e-09,1.8535812183405e-08
2.57,0.01,-8.1686704751301e-06,-2.7743169602503e-06,-1.6670859143099e-05,3.1508827321595e-09,5.16040457292e-06,3.162048739217e-09,1.8521201941052e-08
2.58,0.01,-8.1646802569345e-06,-2.7475986041369e-06,-1.6784981098936e-05,3.1439989391704e-09,5.2432060151227e-06,3.1797898226551e-09,1.8506355261837e-08
2.59,0.01,-8.1597399937486e-06,-2.7204116221034e-06,-1.6898073705943e-05,3.1371054797436e-09,5.3260078564857e-06,3.1974682741156e-09,1.8491268805627e-08
2.6,0.01,-8.1538517676874e-06,-2.6927566717825e-06,-1.701013745996e-05,3.1302025697028e-09,5.4088100935959e-06,3.2150750328648e-09,1.84759390814e-08
2.61,0.01,-8.1470177112026e-06,-2.6646344456591e-06,-1.7121172784494e-05,3.1232904104192e-09,5.491612726881e-06,3.2326008904461e-09,1.846036243969e-08
2.62,0.01,-8.1392399713867e-06,-2.6360456461321e-06,-1.7231180188818e-05,3.1163703541676e-09,5.5744157683711e-06,3.2500364802771e-09,1.8444535071468e-08
2.63,0.01,-8.130520675575e-06,-2.6069909935067e-06,-1.7340160261371e-05,3.1094424952908e-09,5.6572192299725e-06,3.267372265935e-09,1.8428453005153e-08
2.64,0.01,-8.1208619425377e-06,-2.577471212847e-06,-1.7448113477454e-05,3.1025053826707e-09,5.7400231100597e-06,3.2845985206196e-09,1.8412112096071e-08
2.65,0.01,-8.110265869143e-06,-2.5474870004907e-06,-1.7555040265358e-05,3.0955588398472e-09,5.822827404804e-06,3.3017053095472e-09,1.8395508011554e-08
2.66,0.01,-8.0987345529403e-06,-2.5170390519035e-06,-1.7660941123961e-05,3.088603863826e-09,5.9056321169612e-06,3.3186824912169e-09,1.8378636228755e-08
2.67,0.01,-8.0862701141025e-06,-2.4861280818128e-06,-1.7765816601853e-05,3.0816413762183e-09,5.9884372563247e-06,3.3355197157381e-09,1.8361492027201e-08
2.68,0.01,-8.0728746486025e-06,-2.454754818833e-06,-1.7869667268615e-05,3.074671847961e-09,6.0712428367669e-06,3.3522064030676e-09,1.8344070472706e-08
2.69,0.01,-8.0585502076711e-06,-2.4229199873102e-06,-1.7972493687447e-05,3.0676949553287e-09,6.1540488646022e-06,3.368731721979e-09,1.8326366409806e-08
2.7,0.01,-8.0432988705288e-06,-2.3906242785195e-06,-1.8074296386927e-05,3.0607100261269e-09,6.2368553360066e-06,3.3850846010893e-09,1.8308374459917e-08
2.71,0.01,-8.0271227511729e-06,-2.3578683609937e-06,-1.8175075875713e-05,3.0537168271367e-09,6.3196622434218e-06,3.4012537251537e-09,1.8290089006651e-08
2.72,0.01,-8.0100239337751e-06,-2.3246529207864e-06,-1.8274832728926e-05,3.0467166606561e-09,6.4024695865402e-06,3.4172275084532e-09,1.8271504175731e-08
2.73,0.01,-7.9920044735009e-06,-2.2909786574262e-06,-1.8373567538632e-05,3.0397099799979e-09,6.4852773699272e-06,3.4329940885529e-09,1.825261382074e-08
2.74,0.01,-7.9730664182173e-06,-2.2568462720187e-06,-1.8471280803091e-05,3.0326956957515e-09,6.5680856000306e-06,3.4485413323391e-09,1.8233411506751e-08
2.75,0.01,-7.9532118032629e-06,-2.2222564619773e-06,-1.8567973024497e-05,3.0256739390328e-09,6.650894282817e-06,3.463856810867e-09,1.8213890507579e-08
2.76,0.01,-7.9324426424337e-06,-2.1872099049302e-06,-1.8663644757866e-05,3.0186448391739e-09,6.7337034138073e-06,3.4789277728152e-09,1.8194043799945e-08
2.77,0.01,-7.9107609366857e-06,-2.1517072756119e-06,-1.875829655704e-05,3.0116085169421e-09,6.8165129888722e-06,3.4937411508619e-09,1.8173864043836e-08
2.78,0.01,-7.8881686938575e-06,-2.1157492685381e-06,-1.8851928977169e-05,3.0045658360617e-09,6.8993230151611e-06,3.5082835531292e-09,1.8153343566714e-08
2.79,0.01,-7.8646679065604e-06,-2.079336573096e-06,-1.8944542571415e-05,2.9975168520727e-09,6.982133499299e-06,3.522541245727e-09,1.8132474358453e-08
2.8,0.01,-7.8402605200429e-06,-2.0424698456562e-06,-1.90361378797e-05,2.9904608769581e-09,7.0649444373768e-06,3.536500144763e-09,1.811124806725e-08
2.81,0.01,-7.8149484662684e-06,-2.0051497394016e-06,-1.9126715440319e-05,2.9833980230732e-09,7.1477558258018e-06,3.5501457974535e-09,1.8089655983098e-08
2.82,0.01,-7.7887336900046e-06,-1.9673769261361e-06,-1.9216275807422e-05,2.9763291392477e-09,7.2305676725141e-06,3.5634633720147e-09,1.8067689025986e-08
2.83,0.01,-7.7616181113502e-06,-1.9291520983317e-06,-1.9304819555801e-05,2.9692550093751e-09,7.3133799911889e-06,3.5764376377252e-09,1.804533774544e-08
2.84,0.01,-7.73360361595e-06,-1.8904759236652e-06,-1.9392347277729e-05,2.9621756235719e-09,7.3961927883828e-06,3.5890529368745e-09,1.8022592322685e-08
2.85,0.01,-7.7046920926088e-06,-1.8513490120434e-06,-1.9478859510146e-05,2.9550895099563e-09,7.4790060575723e-06,3.6012931854061e-09,1.7999442569006e-08
2.86,0.01,-7.6748854207784e-06,-1.8117719820205e-06,-1.9564356704194e-05,2.947995684252e-09,7.5618197863568e-06,3.613141863731e-09,1.7975877923915e-08
2.87,0.01,-7.6441854653981e-06,-1.7717454831271e-06,-1.9648839350016e-05,2.940895438904e-09,7.644633976007e-06,3.6245820022169e-09,1.7951887459207e-08
2.88,0.01,-7.612594076026e-06,-1.7312701857914e-06,-1.973230800943e-05,2.9337903333077e-09,7.7274486444826e-06,3.6355961540502e-09,1.7927459889925e-08
2.89,0.01,-7.5801130644321e-06,-1.6903467364341e-06,-1.9814763213835e-05,2.926679624832e-09,7.8102637956567e-06,3.6461663728238e-09,1.790258360157e-08
2.9,0.01,-7.5467442312674e-06,-1.6489757281322e-06,-1.9896205438523e-05,2.9195622683062e-09,7.89307941878e-06,3.6562742346565e-09,1.7877246671906e-08
2.91,0.01,-7.5124893962826e-06,-1.6071577620048e-06,-1.9976635188602e-05,2.9124394782918e-09,7.975895516663e-06,3.6659008149998e-09,1.7851436887956e-08
2.92,0.01,-7.4773503671055e-06,-1.5648934519912e-06,-2.0056053012952e-05,2.9053116592336e-09,8.0587120904273e-06,3.675026654903e-09,1.7825141787308e-08
2.93,0.01,-7.4413288951929e-06,-1.5221834091403e-06,-2.0134459429278e-05,2.8981777422739e-09,8.1415291351468e-06,3.6836317844882e-09,1.7798348698626e-08
2.94,0.01,-7.4044267062574e-06,-1.4790282424061e-06,-2.021185492498e-05,2.8910378268164e-09,8.2243466574192e-06,3.691695725139e-09,1.7771044788919e-08
2.95,0.01,-7.3666455296016e-06,-1.4354285550108e-06,-2.0288239983558e-05,2.8838923692377e-09,8.3071646618753e-06,3.6991974652976e-09,1.7743217136483e-08
2.96,0.01,-7.3279870686403e-06,-1.3913849353088e-06,-2.0363615079708e-05,2.876741078641e-09,8.3899831406232e-06,3.7061154763325e-09,1.7714852806479e-08
2.97,0.01,-7.2884529909834e-06,-1.3468979482847e-06,-2.0437980688777e-05,2.8695836910805e-09,8.4728020823412e-06,3.7124277544729e-09,1.7685938928184e-08
2.98,0.01,-7.2480449608496e-06,-1.3019681633283e-06,-2.0511337295156e-05,2.8624206795095e-09,8.5556214832724e-06,3.718111838205e-09,1.7656462787938e-08
2.99,0.01,-7.2067646430208e-06,-1.2565961587068e-06,-2.0583685383831e-05,2.8552524838772e-09,8.6384413453741e-06,3.7231448306974e-09,1.7626411941009e-08
3,0.01,-7.164613687299e-06,-1.2107825163498e-06,-2.0655025433744e-05,2.8480795103372e-09,8.7212616773793e-06,3.72750345326e-09,1.7595774333395e-08
3.01,0.01,-7.0115079134659e-06,-1.1645486372946e-06,-2.0395008222558e-05,-3.9650829814277e-09,8.6385196031564e-06,3.2041966275181e-09,1.3999354444272e-08
3.02,0.01,-6.8577101368865e-06,-1.1179559308166e-06,-2.0134148412815e-05,-1.2814149970902e-08,8.5557781236327e-06,2.0381483448609e-09,1.1225959800475e-08
3.03,0.01,-6.7033872894777e-06,-1.0710820015985e-06,-1.9872601862445e-05,-2.7594291002137e-08,8.4730373989043e-06,9.3185096008624e-11,2.4514638956431e-08
3.04,0.01,-6.5486940067078e-06,-1.0239988131759e-06,-1.9610513461062e-05,-4.8882764861854e-08,8.3902977052868e-06,-2.7050459477431e-09,5.1160075266733e-08
3.05,0.01,-6.3937738709605e-06,-9.7677328393414e-07,-1.9348018399561e-05,-7.7026339600924e-08,8.3075594600499e-06,-6.4008723200848e-09,8.7584737033752e-08
3.06,0.01,-6.238760274353e-06,-9.2946770885758e-07,-1.9085243000275e-05,-1.1225032718955e-07,8.2248232202002e-06,-1.1023047401469e-08,1.335166876917e-07
3.07,0.01,-6.083777176975e-06,-8.8214011242069e-07,-1.8822305423983e-05,-1.5470933392575e-07,8.142089677733e-06,-1.6591459246434e-08,1.8900929643628e-07
3.08,0.01,-5.9289398019248e-06,-8.3484457064e-07,-1.8559316308438e-05,-2.0451297019569e-07,8.0593596533957e-06,-2.3120516413579e-08,2.5413912654188e-07
3.09,0.01,-5.7743552748549e-06,-7.8763150648158e-07,-1.8296379349354e-05,-2.6174000238596e-07,7.976634089803e-06,-3.0621001437681e-08,3.2896388974693e-07
3.1,0.01,-5.6201232137419e-06,-7.4054796161161e-07,-1.803359183131e-05,-3.2644671596235e-07,7.8939140443433e-06,-3.9101157794664e-08,4.1351737892795e-07
3.11,0.01,-5.4663362734823e-06,-6.9363784682041e-07,-1.777104511416e-05,-3.9867215940214e-07,7.8112006821162e-06,-4.8567364643268e-08,5.0781124763089e-07
3.12,0.01,-5.3130806492104e-06,-6.4694217304817e-07,-1.7508825079417e-05,-4.7844159958659e-07,7.728495269036e-06,-5.9024575840622e-08,6.1183786092252e-07
3.13,0.01,-5.1604365417425e-06,-6.0049926466947e-07,-1.7247012540402e-05,-5.6576889628352e-07,7.6457991651766e-06,-7.0476617025263e-08,7.2557297094806e-07
3.14,0.01,-5.0084785881751e-06,-5.5434495649454e-07,-1.6985683619358e-05,-6.60658193589e-07,7.5631138183992e-06,-8.2926393442332e-08,8.4897799132987e-07
3.15,0.01,-4.8572762603703e-06,-5.0851277579015e-07,-1.6724910094423e-05,-7.6310516298398e-07,7.4804407582829e-06,-9.6376039523773e-08,9.8200188708365e-07
3.16,0.01,-4.7068942338049e-06,-4.6303411049593e-07,-1.6464759718976e-05,-8.7309794223588e-07,7.3977815903635e-06,-1.1082702923867e-07,1.1245827450599e-06
3.17,0.01,-4.5573927290486e-06,-4.1793836470495e-07,-1.6205296515648e-05,-9.9061786204252e-07,7.3151379906811e-06,-1.2628025928917e-07,1.2766490889094e-06
3.18,0.01,-4.4088278279436e-06,-3.7325310238425e-07,-1.5946581047077e-05,-1.1156400208521e-06,7.2325117006268e-06,-1.4273611305878e-07,1.438120991025e-06
3.19,0.01,-4.2612517663917e-06,-3.2900418022954e-07,-1.5688670665272e-05,-1.2481337487301e-06,7.1499045220809e-06,-1.6019451063118e-07,1.6089110221944e-06
3.2,0.01,-4.1147132055002e-06,-2.8521587047497e-07,-1.5431619741307e-05,-1.388062988612e-06,7.0673183128288e-06,-1.7865494854271e-07,1.7889250701528e-06
3.21,0.01,-3.9692574827027e-06,-2.4191097441382e-07,-1.5175479876906e-05,-1.5353866150396e-06,6.9847549822414e-06,-1.9811653184554e-07,1.9780630509507e-06
3.22,0.01,-3.8249268443456e-06,-1.9911092732606e-07,-1.4920300099358e-05,-1.6900587049197e-06,6.9022164872071e-06,-2.1857800032899e-07,2.1762195316386e-06
3.23,0.01,-3.6817606611136e-06,-1.5683589545502e-07,-1.4666127041077e-05,-1.8520287710227e-06,6.8197048283008e-06,-2.4003775024636e-07,2.3832842787486e-06
3.24,0.01,-3.5397956275673e-06,-1.1510486562608e-07,-1.4413005105004e-05,-2.0212419662493e-06,6.7372220461762e-06,-2.6249385254489e-07,2.5991427440596e-06
3.25,0.01,-3.3990659469664e-06,-7.3935728054891e-08,-1.4160976616974e-05,-2.1976392647708e-06,6.6547702181686e-06,-2.8594406834811e-07,2.8236764968773e-06
3.26,0.01,-3.2596035024648e-06,-3.3345352851541e-08,-1.3910081966064e-05,-2.3811576247509e-06,6.5723514550942e-06,-3.1038586226023e-07,3.0567636103418e-06
3.27,0.01,-3.1214380156822e-06,6.6503393113076e-09,-1.3660359733845e-05,-2.5717301363224e-06,6.4899678982353e-06,-3.3581641393095e-07,3.2982790079563e-06
3.28,0.01,-2.9845971935828e-06,4.6036311933076e-08,-1.3411846813435e-05,-2.7692861577173e-06,6.4076217164979e-06,-3.6223262822153e-07,3.5480947754946e-06
3.29,0.01,-2.8491068645208e-06,8.4798352421957e-08,-1.3164578519113e-05,-2.97375144186e-06,6.3253151037314e-06,-3.8963114423957e-07,3.8060804426267e-06
3.3,0.01,-2.7149911042494e-06,1.2292301646252e-07,-1.2918588687251e-05,-3.1850482552788e-06,6.2430502762004e-06,-4.1800834345458e-07,4.0721032379495e-06
3.31,0.01,-2.5822723526317e-06,1.6039757667062e-07,-1.2673909769236e-05,-3.4030954908384e-06,6.1608294701975e-06,-4.4736035706345e-07,4.3460283205762e-06
3.32,0.01,-2.4509715217368e-06,1.9720997521739e-07,-1.2430572916996e-05,-3.6278087755165e-06,6.0786549397887e-06,-4.7768307274212e-07,4.627718991001e-06
3.33,0.01,-2.3211080959529e-06,2.3334878012742e-07,-1.2188608061713e-05,-3.8591005742288e-06,5.9965289546825e-06,-5.0897214089364e-07,4.9170368835975e-06
3.34,0.01,-2.1927002247053e-06,2.6880314497797e-07,-1.1948043986254e-05,-4.0968802905233e-06,5.9144537982148e-06,-5.4122298048261e-07,5.2138421428035e-06
3.35,0.01,-2.0657648083225e-06,3.0356277174607e-07,-1.1708908391805e-05,-4.341054364825e-06,5.8324317654411e-06,-5.7443078452956e-07,5.5179935847897e-06
3.36,0.01,-1.9403175775528e-06,3.3761787656878e-07,-1.1471227959163e-05,-4.5915263707919e-06,5.7504651613298e-06,-6.085905253262e-07,5.8293488461923e-06
3.37,0.01,-1.8163731671995e-06,3.7095915819904e-07,-1.1235028405102e-05,-4.8481971102437e-06,5.6685562990503e-06,-6.4369695942141e-07,6.1477645213024e-06
3.38,0.01,-1.6939451843072e-06,4.0357776895549e-07,-1.100033453419e-05,-5.1109647070453e-06,5.5867074983479e-06,-6.7974463242014e-07,6.4730962889429e-06
3.39,0.01,-1.5730462713e-06,4.354652879791e-07,-1.0767170286437e-05,-5.3797247002597e-06,5.5049210840022e-06,-7.1672788362956e-07,6.8051990301232e-06
3.4,0.01,-1.4536881644433e-06,4.6661369662322e-07,-1.0535558781063e-05,-5.6543701368244e-06,5.4231993843618e-06,-7.5464085058179e-07,7.1439269374391e-06
3.41,0.01,-1.3358817479756e-06,4.9701535581607e-07,-1.0305522356734e-05,-5.9347916639596e-06,5.3415447299513e-06,-7.9347747345747e-07,7.4891336170795e-06
3.42,0.01,-1.2196371042282e-06,5.2666298524648e-07,-1.0077082608505e-05,-6.2208776214739e-06,5.2599594521459e-06,-8.3323149943047e-07,7.8406721842025e-06
3.43,0.01,-1.1049635600308e-06,5.555496442343e-07,-9.8502604217614e-06,-6.512514134098e-06,5.1784458819084e-06,-8.73896486951e-07,8.1983953523643e-06
3.44,0.01,-9.9186972967814e-07,5.8366871415707e-07,-9.6250760033761e-06,-6.8095852039449e-06,5.0970063485868e-06,-9.1546580998137e-07,8.5621555176072e-06
3.45,0.01,-8.8036355471243e-07,6.1101388231373e-07,-9.4015489103145e-06,-7.1119728031717e-06,5.0156431787659e-06,-9.5793266219642e-07,8.9318048377467e-06
3.46,0.01,-7.704523407586e-07,6.3757912711463e-07,-9.1796980758891e-06,-7.4195569668916e-06,4.9343586951724e-06,-1.0012900611587e-06,9.3071953073407e-06
3.47,0.01,-6.6214279163234e-07,6.6335870449526e-07,-8.9595418338518e-06,-7.7322158863679e-06,4.8531552156282e-06,-1.0455308524766e-06,9.6881788287694e-06
3.48,0.01,-5.5544104092454e-07,6.8834713545829e-07,-8.7410979404991e-06,-8.049826002503e-06,4.7720350520503e-06,-1.0906477139529e-06,1.0074607279808e-05
3.49,0.01,-4.5035268125141e-07,7.1253919465557e-07,-8.5243835949514e-06,-8.3722620996199e-06,4.6910005094938e-06,-1.1366331597281e-06,1.0466332578036e-05
3.5,0.01,-3.4688279134573e-07,7.359298999279e-07,-8.3094154577569e-06,-8.6993973995227e-06,4.610053885236e-06,-1.1834795444253e-06,1.0863206742377e-05
3.51,0.01,-2.4503596115225e-07,7.585145027263e-07,-8.0962096679557e-06,-9.0311036558087e-06,4.5291974678993e-06,-1.2311790672977e-06,1.1265081952048e-05
3.52,0.01,-1.448163150782e-07,7.8028847934418e-07,-7.8847818587348e-06,-9.3672512483968e-06,4.4484335366103e-06,-1.2797237763835e-06,1.1671810603154e-05
3.53,0.01,-4.6227533539448e-08,8.0124752289457e-07,-7.6751471717889e-06,-9.7077092782261e-06,4.3677643601937e-06,-1.3291055726705e-06,1.208324536313e-05
3.54,0.01,5.0727127067808e-08,8.2138753597152e-07,-7.4673202704993e-06,-1.0052345662074e-05,4.287192196399e-06,-1.3793162142698e-06,1.2499239223234e-05
3.55,0.01,1.4604481584872e-07,8.4070462393904e-07,-7.2613153520286e-06,-1.0401027227435e-05,4.206719291158e-06,-1.4303473206022e-06,1.2919645549241e-05
3.56,0.01,2.3972307023296e-07,8.591950887951e-07,-7.0571461584276e-06,-1.0753619807392e-05,4.1263478778719e-06,-1.4821903765966e-06,1.3344318130489e-05
3.57,0.01,3.3175980003519e-07,8.7685542356185e-07,-6.8548259868383e-06,-1.1109988335419e-05,4.0460801767271e-06,-1.5348367369004e-06,1.3773111227408e-05
3.58,0.01,4.2215327265638e-07,8.9368230715689e-07,-6.6543676988741e-06,-1.1469996940033e-05,3.9659183940365e-06,-1.5882776301024e-06,1.4205879617642e-05
3.59,0.01,5.1090209933636e-07,9.096725997036e-07,-6.4557837292509e-06,-1.1833509039228e-05,3.8858647216078e-06,-1.6425041629672e-06,1.4642478640851e-05
3.6,0.01,5.9800522237448e-07,9.2482333824148e-07,-6.2590860937367e-06,-1.2200387434606e-05,3.8059213361354e-06,-1.6975073246803e-06,1.50827642423e-05
3.61,0.01,6.8346190324124e-07,9.3913173280053e-07,-6.0642863964829e-06,-1.2570494405124e-05,3.7260903986157e-06,-1.7532779911032e-06,1.5526593015287e-05
3.62,0.01,7.6727171150953e-07,9.5259516280598e-07,-5.8713958367963e-06,-1.2943691800378e-05,3.6463740537852e-06,-1.809806929037e-06,1.5973822242485e-05
3.63,0.01,8.4943451453896e-07,9.6521117378245e-07,-5.6804252154043e-06,-1.3319841133344e-05,3.5667744295804e-06,-1.8670848004929e-06,1.6424309936248e-05
3.64,0.01,9.2995046785177e-07,9.7697747432867e-07,-5.4913849402644e-06,-1.3698803672476e-05,3.4872936366177e-06,-1.9251021669683e-06,1.6877914877934e-05
3.65,0.01,1.0088200061435e-06,9.8789193333608e-07,-5.3042850319625e-06,-1.4080440533099e-05,3.4079337676937e-06,-1.9838494937267e-06,1.7334496656271e-05
3.66,0.01,1.0860438348752e-06,9.9795257742662e-07,-5.1191351287435e-06,-1.4464612767991e-05,3.3286968973052e-06,-2.0433171540797e-06,1.7793915704813e-05
3.67,0.01,1.1616229223987e-06,1.0071575885868e-06,-4.9359444912128e-06,-1.4851181457089e-05,3.2495850811875e-06,-2.1034954336678e-06,1.8256033338507e-05
3.68,0.01,1.2355584925687e-06,1.0155053019771e-06,-4.7547220067445e-06,-1.5240007796218e-05,3.1706003558707e-06,-2.1643745347403e-06,1.8720711789387e-05
3.69,0.01,1.307852017801e-06,1.0229942038964e-06,-4.5754761936296e-06,-1.5630953184777e-05,3.0917447382537e-06,-2.2259445804302e-06,1.9187814241426e-05
3.7,0.01,1.3785052125362e-06,1.0296229298846e-06,-4.3982152049956e-06,-1.6023879312288e-05,3.0130202251955e-06,-2.2881956190222e-06,1.9657204864549e-05
3.71,0.01,1.4475200270747e-06,1.0353902629456e-06,-4.2229468325245e-06,-1.6418648243741e-05,2.9344287931225e-06,-2.3511176282124e-06,2.0128748847824e-05
3.72,0.01,1.514898641748e-06,1.0402951318754e-06,-4.0496785099952e-06,-1.6815122503642e-05,2.8559723976524e-06,-2.4147005193564e-06,2.0602312431833e-05
3.73,0.01,1.5806434613969e-06,1.0443366096824e-06,-3.8784173166753e-06,-1.7213165158709e-05,2.7776529732337e-06,-2.4789341417043e-06,2.1077762940238e-05
3.74,0.01,1.6447571101274e-06,1.0475139120841e-06,-3.7091699805826e-06,-1.7612639899119e-05,2.6994724328007e-06,-2.5438082866191e-06,2.1554968810532e-05
3.75,0.01,1.7072424263177e-06,1.0498263960718e-06,-3.5419428816372e-06,-1.801341111826e-05,2.6214326674427e-06,-2.6093126917775e-06,2.2033799623993e-05
3.76,0.01,1.7681024578536e-06,1.0512735585285e-06,-3.3767420547226e-06,-1.8415343990894e-05,2.5435355460894e-06,-2.6754370453496e-06,2.2514126134822e-05
3.77,0.01,1.8273404575676e-06,1.0518550348933e-06,-3.2135731926718e-06,-1.881830454969e-05,2.465782915209e-06,-2.7421709901559e-06,2.2995820298485e-05
3.78,0.01,1.8849598788634e-06,1.0515705978601e-06,-3.0524416491943e-06,-1.9222159760045e-05,2.3881765985216e-06,-2.8095041277983e-06,2.3478755299233e-05
3.79,0.01,1.9409643715052e-06,1.0504201561041e-06,-2.8933524417581e-06,-1.9626777593141e-05,2.3107183967258e-06,-2.8774260227636e-06,2.3962805576826e-05
3.8,0.01,1.9953577775559e-06,1.0484037530281e-06,-2.7363102544388e-06,-2.0032027097187e-05,2.2334100872389e-06,-2.9459262064973e-06,2.4447846852427e-05
3.81,0.01,2.0481441274463e-06,1.0455215655201e-06,-2.5813194407477e-06,-2.0437778466774e-05,2.1562534239507e-06,-3.0149941814443e-06,2.4933756153685e-05
3.82,0.01,2.0993276361623e-06,1.0417739027178e-06,-2.4283840264491e-06,-2.0843903110316e-05,2.07925013699e-06,-3.0846194250547e-06,2.5420411838997e-05
3.83,0.01,2.148912699536e-06,1.0371612047735e-06,-2.277507712376e-06,-2.125027371551e-05,2.0024019325041e-06,-3.1547913937539e-06,2.5907693620938e-05
3.84,0.01,2.1969038906285e-06,1.0316840416129e-06,-2.1286938772533e-06,-2.1656764312782e-05,1.9257104924511e-06,-3.2254995268719e-06,2.6395482588865e-05
3.85,0.01,2.243305956193e-06,1.025343111686e-06,-1.9819455805356e-06,-2.2063250336673e-05,1.8491774744043e-06,-3.2967332505323e-06,2.6883661230682e-05
3.86,0.01,2.2881238132086e-06,1.0181392407028e-06,-1.8372655652657e-06,-2.2469608685132e-05,1.7728045113694e-06,-3.3684819814976e-06,2.7372113453774e-05
3.87,0.01,2.3313625454742e-06,1.0100733803523e-06,-1.6946562609611e-06,-2.2875717776681e-05,1.6965932116127e-06,-3.4407351309692e-06,2.7860724605094e-05
3.88,0.01,2.3730274002565e-06,1.0011466070008e-06,-1.5541197865326e-06,-2.3281457605414e-05,1.6205451585027e-06,-3.5134821083395e-06,2.8349381490407e-05
3.89,0.01,2.4131237849814e-06,9.9136012036621e-07,-1.4156579532402e-06,-2.3686709793823e-05,1.5446619103621e-06,-3.586712324895e-06,2.8837972392696e-05
3.9,0.01,2.4516572639646e-06,9.8071524216711e-07,-1.2792722676896e-06,-2.4091357643399e-05,1.4689450003315e-06,-3.6604151974682e-06,2.9326387089705e-05
3.91,0.01,2.4886335551743e-06,9.6921341474287e-07,-1.1449639348737e-06,-2.4495286183021e-05,1.3933959362454e-06,-3.7345801520357e-06,2.981451687065e-05
3.92,0.01,2.5240585270193e-06,9.568561996444e-07,-1.012733861261e-06,-2.4898382215082e-05,1.3180162005181e-06,-3.8091966272626e-06,3.0302254552069e-05
3.93,0.01,2.5579381951604e-06,9.4364527619333e-07,-8.8258265793355e-07,-2.5300534359372e-05,1.2428072500417e-06,-3.8842540779896e-06,3.0789494492828e-05
3.94,0.01,2.5902787193378e-06,9.2958244000862e-07,-7.545106437765e-07,-2.5701633094684e-05,1.1677705160939e-06,-3.9597419786622e-06,3.1276132608276e-05
3.95,0.01,2.6210864002125e-06,9.1466960149971e-07,-6.2851784872067e-07,-2.6101570798149e-05,1.0929074042577e-06,-4.0356498267007e-06,3.1762066383554e-05
3.96,0.01,2.6503676762181e-06,8.9890878432552e-07,-5.046040170389e-07,-2.650024178229e-05,1.0182192943504e-06,-4.1119671458083e-06,3.2247194886057e-05
3.97,0.01,2.6781291204197e-06,8.8230212381875e-07,-3.8276861069729e-07,-2.6897542329806e-05,9.4370754036386e-07,-4.1886834892181e-06,3.2731418777062e-05
3.98,0.01,2.7043774373776e-06,8.6485186537552e-07,-2.6301081276137e-07,-2.7293370726076e-05,8.6937347041454e-07,-4.2657884428749e-06,3.3214640322502e-05
3.99,0.01,2.7291194600142e-06,8.4656036280997e-07,-1.4532953085734e-07,-2.7687627289401e-05,7.9521838670369e-07,-4.3432716285533e-06,3.3696763402924e-05
4,0.01,2.7523621464818e-06,8.2743007667433e-07,-2.972340068821e-08,-2.8080214398981e-05,7.212435654874e-07,-4.421122706909e-06,3.4177693522604e-05
4.01,0.01,2.7190610597484e-06,8.0747020568794e-07,2.8763462950884e-08,-2.8280982991322e-05,7.3022749544428e-07,-4.4116012305018e-06,3.4453190340046e-05
4.02,0.01,2.684328837895e-06,7.8670280163114e-07,8.5255287397065e-08,-2.8478064935063e-05,7.3937760683107e-07,-4.4018690242346e-06,3.4725217667317e-05
4.03,0.01,2.6482236025546e-06,7.6515517796975e-07,1.3982650908104e-07,-2.8671558905855e-05,7.4867944870803e-07,-4.3919410232583e-06,3.4993852270576e-05
4.04,0.01,2.6107997663191e-06,7.4285294071028e-07,1.92546548224e-07,-2.8861557589642e-05,7.581196512001e-07,-4.3818311774373e-06,3.5259165051045e-05
4.05,0.01,2.5721083749426e-06,7.1982014871722e-07,2.4348028829554e-07,-2.9048148293098e-05,7.6768581996622e-07,-4.3715525425314e-06,3.552122164314e-05
4.06,0.01,2.5321973383612e-06,6.9607942074606e-07,2.9268839781192e-07,-2.923141327811e-05,7.7736646497859e-07,-4.3611173373593e-06,3.5780082764332e-05
4.07,0.01,2.4911116455616e-06,6.7165203493767e-07,3.402276291566e-07,-2.9411430078649e-05,7.8715093452399e-07,-4.3505369975431e-06,3.6035804546652e-05
4.08,0.01,2.4488935644397e-06,6.4655802130894e-07,3.8615109607308e-07,-2.958827180061e-05,7.9702935404248e-07,-4.3398222260034e-06,3.6288438850328e-05
4.09,0.01,2.4055828277055e-06,6.2081624773586e-07,4.3050853136038e-07,-2.9762007405244e-05,8.069925694479e-07,-4.3289830403695e-06,3.6538033560145e-05
4.1,0.01,2.3612168058181e-06,5.9444449989013e-07,4.7334652619067e-07,-2.9932701976813e-05,8.1703209460035e-07,-4.318028817466e-06,3.6784632865116e-05
4.11,0.01,2.315830667862e-06,5.674595555568e-07,5.1470875236555e-07,-3.0100416975121e-05,8.2714006262547e-07,-4.3069683350327e-06,3.7028277522112e-05
4.12,0.01,2.2694575312131e-06,5.3987725373034e-07,5.546361687326e-07,-3.0265210473572e-05,8.3730918079777e-07,-4.2958098108305e-06,3.7269005104112e-05
4.13,0.01,2.2221286007815e-06,5.1171255885789e-07,5.9316721289535e-07,-3.0427137383396e-05,8.475326887263e-07,-4.2845609392781e-06,3.7506850233738e-05
4.14,0.01,2.1738732985626e-06,4.8297962057222e-07,6.3033797926832e-07,-3.0586249664703e-05,8.5780431959985e-07,-4.2732289257616e-06,3.7741844802756e-05
4.15,0.01,2.1247193841762e-06,4.5369182923253e-07,6.6618238445255e-07,-3.0742596524974e-05,8.6811826426733e-07,-4.2618205187516e-06,3.7974018178195e-05
4.16,0.01,2.0746930670247e-06,4.2386186756853e-07,7.0073232083734e-07,-3.0896224605628e-05,8.78469137945e-07,-4.2503420398557e-06,3.8203397395756e-05
4.17,0.01,2.023819110658e-06,3.9350175870232e-07,7.3401779926843e-07,-3.1047178157246e-05,8.8885194935794e-07,-4.2387994119306e-06,3.8430007341154e-05
4.18,0.01,1.9721209298897e-06,3.6262291080302e-07,7.6606708156242e-07,-3.1195499204055e-05,8.9926207213712e-07,-4.2271981853693e-06,3.8653870920014e-05
4.19,0.01,1.9196206811722e-06,3.3123615861098e-07,7.9690680359146e-07,-3.1341227698218e-05,9.096952183066e-07,-4.215543562676e-06,3.8875009216951e-05
4.2,0.01,1.866339346701e-06,2.993518020518e-07,8.2656208961014e-07,-3.1484401664489e-05,9.2014741370779e-07,-4.203840421432e-06,3.9093441644399e-05
4.21,0.01,1.812296812687e-06,2.6697964214454e-07,8.5505665844833e-07,-3.162505733574e-05,9.3061497521855e-07,-4.1920933357542e-06,3.9309186081779e-05
4.22,0.01,1.7575119422035e-06,2.3412901439419e-07,8.8241292214907e-07,-3.1763229279878e-05,9.4109448963577e-07,-4.1803065963392e-06,3.9522259005548e-05
4.23,0.01,1.7020026429859e-06,2.0080881984514e-07,9.0865207758926e-07,-3.1898950518614e-05,9.5158279409955e-07,-4.168484229183e-06,3.9732675610643e-05
4.24,0.01,1.6457859305371e-06,1.6702755395956e-07,9.3379419158208e-07,-3.2032252638558e-05,9.6207695794591e-07,-4.1566300130588e-06,3.9940449923839e-05
4.25,0.01,1.5888779868647e-06,1.3279333347354e-07,9.5785827992497e-07,-3.2163165895073e-05,9.725742658837e-07,-4.1447474958341e-06,4.0145594909476e-05
4.26,0.01,1.5312942151552e-06,9.8113921372473e-08,9.8086238082328e-07,-3.2291719309297e-05,9.8307220239844e-07,-4.1328400096999e-06,4.0348122568031e-05
4.27,0.01,1.4730492906667e-06,6.2996750117829e-08,1.0028236230894e-06,-3.2417940758739e-05,9.9356843729355e-07,-4.1209106853826e-06,4.0548044027955e-05
4.28,0.01,1.414157208105e-06,2.7448943247603e-08,1.0237582894885e-06,-3.2541857061828e-05,1.0040608122857e-06,-4.108962465406e-06,4.0745369631192e-05
4.29,0.01,1.354631325726e-06,-8.5226645354912e-09,1.0436818755756e-06,-3.266349405676e-05,1.0145473285767e-06,-4.0969981164625e-06,4.0940109012762e-05
4.3,0.01,1.2944844063937e-06,-4.4911508682224e-08,1.0626091443436e-06,-3.2782876674997e-05,1.0250261353318e-06,-4.0850202409546e-06,4.1132271174782e-05
4.31,0.01,1.2337286558034e-06,-8.1711277422951e-08,1.0805541769813e-06,-3.2900029009731e-05,1.035495518996e-06,-4.0730312877593e-06,4.1321864555273e-05
4.32,0.01,1.172375758069e-06,-1.1891589561004e-07,1.0975304200143e-06,-3.3014974379621e-05,1.0459538933893e-06,-4.0610335622673e-06,4.1508897092081e-05
4.33,0.01,1.1104369088561e-06,-1.5651950969149e-07,1.1135507290897e-06,-3.3127735388091e-05,1.0563997905227e-06,-4.0490292357455e-06,4.169337628222e-05
4.34,0.01,1.0479228462321e-06,-1.9451647373656e-07,1.1286274096385e-06,-3.3238333978462e-05,1.0668318520821e-06,-4.0370203540665e-06,4.1875309236936e-05
4.35,0.01,9.8484387939125e-07,-2.3290133643975e-07,1.1427722546402e-06,-3.3346791485167e-05,1.0772488215324e-06,-4.0250088458483e-06,4.2054702732764e-05
4.36,0.01,9.2120991540231e-07,-2.7166882903466e-07,1.1559965796939e-06,-3.3453128681315e-05,1.0876495367955e-06,-4.0129965300434e-06,4.2231563258835e-05
4.37,0.01,8.5703048411593e-07,-3.1081385405412e-07,1.168311255587e-06,-3.3557365822803e-05,1.0980329234605e-06,-4.0009851230135e-06,4.2405897060687e-05
4.38,0.01,7.9231476135958e-07,-3.5033147487719e-07,1.179726738539e-06,-3.3659522689217e-05,1.1083979884876e-06,-3.9889762451254e-06,4.25777101808e-05
4.39,0.01,7.2707159053838e-07,-3.9021690600812e-07,1.1902530982857e-06,-3.3759618621713e-05,1.1187438143694e-06,-3.9769714268991e-06,4.274700849608e-05
4.4,0.01,6.613095027528e-07,-4.3046550403583e-07,1.1999000441567e-06,-3.385767255808e-05,1.1290695537159e-06,-3.9649721147397e-06,4.2913797752486e-05
4.41,0.01,5.9503673553558e-07,-4.7107275922645e-07,1.2086769492879e-06,-3.3953703065151e-05,1.1393744242332e-06,-3.9529796762798e-06,4.3078083597e-05
4.42,0.01,5.28261250304e-07,-5.1203428770441e-07,1.216592873103e-06,-3.4047728368749e-05,1.1496577040656e-06,-3.9409954053596e-06,4.3239871607112e-05
4.4299999999999,0.01,4.6099074861611e-07,-5.5334582418088e-07,1.2236565821846e-06,-3.4139766381325e-05,1.1599187274767e-06,-3.9290205266698e-06,4.3399167317995e-05
4.4399999999999,0.01,3.9323268731422e-07,-5.9500321519121e-07,1.2298765696511e-06,-3.4229834727428e-05,1.170156880843e-06,-3.9170562000783e-06,4.3555976247517e-05
4.4499999999999,0.01,3.2499429263234e-07,-6.3700241280573e-07,1.2352610731442e-06,-3.4317950767163e-05,1.1803715989377e-06,-3.9051035246646e-06,4.3710303919254e-05
4.4599999999999,0.01,2.5628257333965e-07,-6.7933946878047e-07,1.2398180915265e-06,-3.440413161776e-05,1.1905623614841e-06,-3.8931635424803e-06,4.3862155883621e-05
4.4699999999999,0.01,1.8710433298674e-07,-7.2201052911723e-07,1.2435554003796e-06,-3.4488394173395e-05,1.2007286899582e-06,-3.8812372420545e-06,4.4011537737274e-05
4.4799999999999,0.01,1.1746618131661e-07,-7.6501182900401e-07,1.24648056639e-06,-3.4570755123355e-05,1.2108701446231e-06,-3.8693255616624e-06,4.4158455140883e-05
4.4899999999999,0.01,4.7374544898592e-08,-8.0833968810909e-07,1.2486009606988e-06,-3.4651230968689e-05,1.2209863217774e-06,-3.8574293923724e-06,4.4302913835411e-05
4.4999999999999,0.01,-2.3164322961226e-08,-8.5199050620402e-07,1.2499237712923e-06,-3.4729838037425e-05,1.2310768512027e-06,-3.8455495808873e-06,4.444491965698e-05
4.5099999999999,0.01,-9.4144332982709e-08,-8.9596075909222e-07,1.2504560144985e-06,-3.4806592498462e-05,1.2411413937957e-06,-3.8336869321941e-06,4.4584478550454e-05
4.5199999999999,0.01,-1.65559551301e-07,-9.402469948217e-07,1.2502045456558e-06,-3.4881510374225e-05,1.2511796393707e-06,-3.8218422120343e-06,4.4721596581806e-05
4.5299999999999,0.01,-2.3740419143896e-07,-9.8484583016187e-07,1.2491760690105e-06,-3.4954607552176e-05,1.2611913046215e-06,-3.8100161492089e-06,4.4856279949367e-05
4.5399999999999,0.01,-3.0967260682225e-07,-1.0297539473259e-06,1.2473771469004e-06,-3.5025899795248e-05,1.2711761312293e-06,-3.7982094377273e-06,4.4988534994045e-05
4.5499999999999,0.01,-3.8235928379952e-07,-1.0749680909208e-06,1.2448142082733e-06,-3.5095402751296e-05,1.2811338841074e-06,-3.7864227388136e-06,4.5118368208577e-05
4.5599999999999,0.01,-4.5545883513253e-07,-1.1204850651102e-06,1.2414935565886e-06,-3.5163131961618e-05,1.2910643497724e-06,-3.7746566827766e-06,4.5245786245896e-05
4.5699999999999,0.01,-5.289659939237e-07,-1.1663017309731e-06,1.2374213771471e-06,-3.5229102868625e-05,1.3009673348326e-06,-3.7629118707569e-06,4.5370795926672e-05
4.5799999999999,0.01,-6.0287560795062e-07,-1.2124150040466e-06,1.2326037438881e-06,-3.5293330822718e-05,1.3108426645842e-06,-3.7511888763557e-06,4.5493404246099e-05
4.5899999999999,0.01,-6.7718263437932e-07,-1.2588218520375e-06,1.2270466256929e-06,-3.5355831088432e-05,1.3206901817095e-06,-3.7394882471568e-06,4.5613618379975e-05
4.5999999999999,0.01,-7.5188213483002e-07,-1.3055192926931e-06,1.22075589223e-06,-3.5416618849895e-05,1.3305097450678e-06,-3.7278105061469e-06,4.5731445690138e-05
4.6099999999999,0.01,-8.2696927077069e-07,-1.3525043918173e-06,1.2137373193744e-06,-3.5475709215669e-05,1.3403012285728e-06,-3.716156153042e-06,4.5846893729305e-05
4.6199999999999,0.01,-9.0243929921587e-07,-1.3997742614237e-06,1.2059965942327e-06,-3.5533117222999e-05,1.3500645201512e-06,-3.7045256655271e-06,4.5959970245362e-05
4.6299999999999,0.01,-9.7828756870926e-07,-1.4473260580152e-06,1.1975393198002e-06,-3.5588857841538e-05,1.3597995207748e-06,-3.692919500414e-06,4.6070683185153e-05
4.6399999999999,0.01,-1.0545095155705e-06,-1.49515698098e-06,1.1883710192786e-06,-3.5642945976566e-05,1.3695061435624e-06,-3.6813380947233e-06,4.6179040697798e-05
4.6499999999999,0.01,-1.1311006603877e-06,-1.5432642710981e-06,1.1784971400779e-06,-3.569539647177e-05,1.3791843129457e-06,-3.6697818666967e-06,4.62850511376e-05
4.6599999999999,0.01,-1.2080566047384e-06,-1.5916452091473e-06,1.1679230575247e-06,-3.5746224111591e-05,1.388833963894e-06,-3.6582512167428e-06,4.6388723066553e-05
4.6699999999999,0.01,-1.2853730281236e-06,-1.6402971146042e-06,1.1566540782995e-06,-3.5795443623203e-05,1.3984550411953e-06,-3.6467465283226e-06,4.6490065256502e-05
4.6799999999999,0.01,-1.3630456850991e-06,-1.6892173444319e-06,1.1446954436209e-06,-3.5843069678127e-05,1.4080474987871e-06,-3.6352681687777e-06,4.6589086690978e-05
4.6899999999999,0.01,-1.4410704025911e-06,-1.738403291948e-06,1.1320523321967e-06,-3.5889116893531e-05,1.4176112991359e-06,-3.623816490106e-06,4.6685796566746e-05
4.6999999999999,0.01,-1.5194430773832e-06,-1.7878523857682e-06,1.1187298629577e-06,-3.5933599833238e-05,1.4271464126596e-06,-3.612391829688e-06,4.6780204295079e-05
4.7099999999999,0.01,-1.5981596737618e-06,-1.8375620888188e-06,1.1047330975902e-06,-3.5976533008463e-05,1.4366528171916e-06,-3.6009945109673e-06,4.6872319502799e-05
4.7199999999999,0.01,-1.6772162213105e-06,-1.887529897414e-06,1.0900670428827e-06,-3.6017930878305e-05,1.4461304974823e-06,-3.5896248440885e-06,4.6962152033102e-05
4.7299999999999,0.01,-1.7566088128416e-06,-1.9377533403924e-06,1.0747366528989e-06,-3.6057807850026e-05,1.4555794447355e-06,-3.5782831264953e-06,4.7049711946185e-05
4.7399999999999,0.01,-1.8363336024557e-06,-1.9882299783094e-06,1.0587468309915e-06,-3.6096178279122e-05,1.4649996561781e-06,-3.566969643492e-06,4.7135009519712e-05
4.7499999999999,0.01,-1.9163868037201e-06,-2.0389574026799e-06,1.0421024316665e-06,-3.6133056469218e-05,1.4743911346596e-06,-3.5556846687701e-06,4.7218055249115e-05
4.7599999999999,0.01,-1.9967646879588e-06,-2.0899332352692e-06,1.0248082623112e-06,-3.6168456671803e-05,1.4837538882792e-06,-3.5444284649034e-06,4.7298859847766e-05
4.7699999999999,0.01,-2.077463582644e-06,-2.141155127428e-06,1.0068690847937e-06,-3.6202393085816e-05,1.4930879300397e-06,-3.5332012838127e-06,4.7377434247038e-05
4.7799999999999,0.01,-2.1584798698847e-06,-2.1926207594668e-06,9.8828961694542e-07,-3.6234879857103e-05,1.5023932775252e-06,-3.5220033672035e-06,4.7453789596254e-05
4.7899999999999,0.01,-2.2398099850029e-06,-2.2443278400696e-06,9.6907453393416e-07,-3.6265931077767e-05,1.511669952601e-06,-3.5108349469771e-06,4.7527937262559e-05
4.7999999999999,0.01,-2.3214504151938e-06,-2.2962741057409e-06,9.4922846953584e-07,-3.6295560785407e-05,1.5209179811348e-06,-3.4996962456178e-06,4.7599888830715e-05
4.8099999999999,0.01,-2.4033976982617e-06,-2.3484573202859e-06,9.2875601731322e-07,-3.6323782962272e-05,1.5301373927365e-06,-3.4885874765584e-06,4.7669656102838e-05
4.8199999999999,0.01,-2.4856484214277e-06,-2.40087527432e-06,9.0766173170791e-07,-3.6350611534344e-05,1.5393282205166e-06,-3.4775088445233e-06,4.773725109809e-05
4.8299999999999,0.01,-2.5681992202045e-06,-2.4535257848058e-06,8.8595012905253e-07,-3.6376060370345e-05,1.5484905008606e-06,-3.4664605458541e-06,4.7802686052331e-05
4.8399999999999,0.01,-2.6510467773316e-06,-2.5064066946159e-06,8.6362568850901e-07,-3.6400143280698e-05,1.5576242732192e-06,-3.4554427688149e-06,4.7865973417753e-05
4.8499999999999,0.01,-2.7341878217686e-06,-2.5595158721185e-06,8.4069285293849e-07,-3.6422874016431e-05,1.5667295799131e-06,-3.4444556938827e-06,4.792712586249e-05
4.8599999999999,0.01,-2.817619127742e-06,-2.6128512107852e-06,8.1715602970821e-07,-3.6444266268054e-05,1.57580646595e-06,-3.4334994940205e-06,4.7986156270233e-05
4.8699999999999,0.01,-2.9013375138406e-06,-2.6664106288187e-06,7.9301959144014e-07,-3.6464333664392e-05,1.5848549788553e-06,-3.4225743349367e-06,4.804307773984e-05
4.8799999999999,0.01,-2.985339842158e-06,-2.7201920687988e-06,7.6828787670585e-07,-3.6483089771409e-05,1.593875168513e-06,-3.41168037533e-06,4.8097903584962e-05
4.8899999999999,0.01,-3.0696230174766e-06,-2.7741934973456e-06,7.4296519067169e-07,-3.6500548091006e-05,1.6028670870184e-06,-3.4008177671224e-06,4.8150647333684e-05
4.8999999999999,0.01,-3.1541839864927e-06,-2.828412904798e-06,7.1705580569841e-07,-3.6516722059808e-05,1.6118307885399e-06,-3.3899866556796e-06,4.8201322728199e-05
4.9099999999999,0.01,-3.2390197370771e-06,-2.8828483049073e-06,6.9056396189849e-07,-3.6531625047952e-05,1.62076632919e-06,-3.37918718002e-06,4.8249943724506e-05
4.9199999999999,0.01,-3.3241272975709e-06,-2.9374977345434e-06,6.6349386765458e-07,-3.6545270357869e-05,1.6296737669052e-06,-3.3684194730147e-06,4.8296524492158e-05
4.9299999999999,0.01,-3.4095037361129e-06,-2.9923592534138e-06,6.3584970010227e-07,-3.6557671223074e-05,1.6385531613334e-06,-3.3576836615758e-06,4.8341079414045e-05
4.9399999999999,0.01,-3.4951461599964e-06,-3.0474309437936e-06,6.0763560557976e-07,-3.6568840806963e-05,1.6474045737294e-06,-3.3469798668376e-06,4.8383623086237e-05
4.9499999999999,0.01,-3.5810517150537e-06,-3.1027109102658e-06,5.7885570004746e-07,-3.6578792201625e-05,1.656228066856e-06,-3.3363082043276e-06,4.8424170317877e-05
4.9599999999999,0.01,-3.667217585066e-06,-3.1581972794714e-06,5.4951406947966e-07,-3.6587538426666e-05,1.6650237048924e-06,-3.325668784131e-06,4.8462736131137e-05
4.9699999999999,0.01,-3.753640991197e-06,-3.2138881998681e-06,5.1961477023068e-07,-3.6595092428057e-05,1.6737915533485e-06,-3.3150617110467e-06,4.8499335761243e-05
4.9799999999999,0.01,-3.8403191914489e-06,-3.269781841497e-06,4.8916182937745e-07,-3.6601467077e-05,1.6825316789843e-06,-3.3044870847371e-06,4.8533984656562e-05
4.9899999999999,0.01,-3.9272494801383e-06,-3.3258763957568e-06,4.5815924504056e-07,-3.6606675168819e-05,1.6912441497342e-06,-3.293944999871e-06,4.8566698478776e-05
4.9999999999999,0.01,-4.0144291873918e-06,-3.3821700751849e-06,4.2661098668571e-07,-3.6610729421882e-05,1.6999290346366e-06,-3.2834355462604e-06,4.8597493103123e-05
5.0099999999999,0.01,-4.1018134813626e-06,-3.4386327796295e-06,1.7431526134058e-07,-3.5745626166957e-05,1.7085864037679e-06,-3.2729588089921e-06,4.7836863426067e-05
5.0199999999999,0.01,-4.1892768885801e-06,-3.4951802981387e-06,-7.8301854222242e-08,-3.4890441167956e-05,1.7172163341828e-06,-3.2626394001534e-06,4.7084835430892e-05
5.0299999999999,0.01,-4.2766624055955e-06,-3.5517073597008e-06,-3.3103424128214e-07,-3.4045892795353e-05,1.725818921326e-06,-3.2524764796052e-06,4.6341994010657e-05
5.0399999999999,0.01,-4.3638261541753e-06,-3.6081176450417e-06,-5.8369327339252e-07,-3.3212603578272e-05,1.7343942834454e-06,-3.2424690808341e-06,4.5608851370953e-05
5.0499999999999,0.01,-4.4506362220969e-06,-3.6643229941103e-06,-8.3610624297129e-07,-3.2391109377815e-05,1.7429425596466e-06,-3.2326161248955e-06,4.4885853857807e-05
5.0599999999999,0.01,-4.5369718479386e-06,-3.7202428456226e-06,-1.0881152463322e-06,-3.1581866700891e-05,1.7514639081097e-06,-3.2229164330751e-06,4.4173387408068e-05
5.0699999999999,0.01,-4.6227226564954e-06,-3.7758037113829e-06,-1.3395761409999e-06,-3.078525953448e-05,1.7599585044226e-06,-3.2133687385794e-06,4.34717826218e-05
5.0799999999999,0.01,-4.7077879418924e-06,-3.8309386833921e-06,-1.5903575708581e-06,-3.0001605720178e-05,1.7684265400234e-06,-3.2039716973143e-06,4.2781319475586e-05
5.0899999999999,0.01,-4.7920759956301e-06,-3.8855869718613e-06,-1.8403400549502e-06,-2.9231162889629e-05,1.776868220745e-06,-3.1947238978119e-06,4.2102231695745e-05
5.0999999999999,0.01,-4.8755034769477e-06,-3.9396934723503e-06,-2.0894151359987e-06,-2.847413398192e-05,1.7852837654574e-06,-3.18562387036e-06,4.1434710810361e-05
5.1099999999999,0.01,-4.9579948230322e-06,-3.9932083603457e-06,-2.3374845849468e-06,-2.7730672364148e-05,1.7936734048012e-06,-3.1766700953879e-06,4.0778909898712e-05
5.1199999999999,0.01,-5.0394816967402e-06,-4.0460867116854e-06,-2.5844596580447e-06,-2.700088657634e-05,1.8020373800069e-06,-3.1678610111565e-06,4.0134947056295e-05
5.1299999999999,0.01,-5.119902469623e-06,-4.0982881473199e-06,-2.8302604032106e-06,-2.6284844721634e-05,1.810375941796e-06,-3.1591950208037e-06,3.9502908593099e-05
5.1399999999999,0.01,-5.1992017381698e-06,-4.1497765009833e-06,-3.0748150125904e-06,-2.5582578522264e-05,1.8186893493579e-06,-3.1506704987855e-06,3.888285198216e-05
5.1499999999999,0.01,-5.2773298712962e-06,-4.2005195084228e-06,-3.3180592184242e-06,-2.489408706135e-05,1.8269778693986e-06,-3.1422857967586e-06,3.8274808574798e-05
5.1599999999999,0.01,-5.3542425872163e-06,-4.2504885169105e-06,-3.5599357294993e-06,-2.4219340229894e-05,1.8352417752574e-06,-3.1340392489428e-06,3.7678786098217e-05
5.1699999999999,0.01,-5.4299005579358e-06,-4.2996582138269e-06,-3.8003937056314e-06,-2.35582818977e-05,1.8434813460861e-06,-3.1259291769998e-06,3.7094770950425e-05
5.1799999999999,0.01,-5.5042690397055e-06,-4.3480063731749e-06,-4.0393882677695e-06,-2.2910832826212e-05,1.8516968660888e-06,-3.1179538944657e-06,3.6522730306689e-05
5.1899999999999,0.01,-5.5773175278631e-06,-4.3955136189438e-06,-4.2768800414633e-06,-2.2276893340461e-05,1.859888623817e-06,-3.1101117107681e-06,3.5962614051038e-05
5.1999999999999,0.01,-5.6490194345805e-06,-4.4421632043011e-06,-4.5128347315675e-06,-2.1656345776552e-05,1.868056911517e-06,-3.1024009348608e-06,3.5414356545546e-05
5.2099999999999,0.01,-5.7193517881181e-06,-4.4879408056494e-06,-4.7472227261853e-06,-2.1049056720306e-05,1.8762020245272e-06,-3.0948198785025e-06,3.487787824944e-05
5.2199999999999,0.01,-5.7882949522632e-06,-4.5328343306345e-06,-4.9800187279751e-06,-2.0454879051848e-05,1.884324260721e-06,-3.0873668592097e-06,3.4353087199384e-05
5.2299999999999,0.01,-5.8558323647086e-06,-4.5768337392475e-06,-5.2112014110548e-06,-1.9873653810146e-05,1.8924239199928e-06,-3.0800402029065e-06,3.3839880361583e-05
5.2399999999999,0.01,-5.9219502931937e-06,-4.6199308772057e-06,-5.4407531018498e-06,-1.9305211890727e-05,1.9005013037846e-06,-3.0728382462961e-06,3.3338144865723e-05
5.2499999999999,0.01,-5.9866376083019e-06,-4.6621193208484e-06,-5.6686594823276e-06,-1.8749375588991e-05,1.9085567146507e-06,-3.0657593389769e-06,3.2847759130107e-05
5.2599999999999,0.01,-6.0498855718692e-06,-4.7033942328238e-06,-5.8949093141586e-06,-1.8205960000834e-05,1.9165904558572e-06,-3.0588018453214e-06,3.2368593886781e-05
5.2699999999999,0.01,-6.1116876400191e-06,-4.7437522278857e-06,-6.1194941824336e-06,-1.7674774291529e-05,1.9246028310152e-06,-3.0519641461398e-06,3.1900513114819e-05
5.2799999999999,0.01,-6.1720392798987e-06,-4.7831912481581e-06,-6.3424082576495e-06,-1.7155622843152e-05,1.9325941437443e-06,-3.0452446401437e-06,3.1443374889428e-05
5.2899999999999,0.01,-6.2309377992419e-06,-4.8217104472624e-06,-6.5636480747586e-06,-1.6648306290129e-05,1.9405646973653e-06,-3.0386417452283e-06,3.0997032153991e-05
5.2999999999999,0.01,-6.2883821879386e-06,-4.8593100827381e-06,-6.7832123281481e-06,-1.6152622451893e-05,1.9485147946197e-06,-3.0321538995874e-06,3.0561333421681e-05
5.3099999999999,0.01,-6.3443729708376e-06,-4.8959914162196e-06,-7.0011016814889e-06,-1.566836717097e-05,1.9564447374143e-06,-3.0257795626752e-06,3.0136123412795e-05
5.3199999999999,0.01,-6.3989120710559e-06,-4.9317566208665e-06,-7.2173185914591e-06,-1.5195335064293e-05,1.9643548265891e-06,-3.0195172160297e-06,2.9721243633528e-05
5.3299999999999,0.01,-6.4520026831107e-06,-4.9666086955699e-06,-7.4318671444091e-06,-1.4733320194958e-05,1.972245361707e-06,-3.0133653639681e-06,2.9316532901475e-05
5.3399999999999,0.01,-6.5036491552324e-06,-5.0005513854915e-06,-7.6447529050955e-06,-1.4282116671122e-05,1.980116640864e-06,-3.0073225341661e-06,2.8921827822756e-05
5.3499999999999,0.01,-6.5538568802547e-06,-5.0335891085142e-06,-7.8559827766647e-06,-1.3841519178285e-05,1.9879689605176e-06,-3.0013872781329e-06,2.8536963225283e-05
5.3599999999999,0.01,-6.6026321945149e-06,-5.065726887211e-06,-8.0655648711217e-06,-1.3411323450688e-05,1.9958026153334e-06,-2.9955581715892e-06,2.8161772552325e-05
5.3699999999999,0.01,-6.649982284233e-06,-5.0969702859623e-06,-8.2735083895642e-06,-1.2991326687188e-05,2.0036178980476e-06,-2.9898338147592e-06,2.7796088220208e-05
5.3799999999999,0.01,-6.6959150988687e-06,-5.1273253528746e-06,-8.4798235115145e-06,-1.258132791651e-05,2.0114150993444e-06,-2.9842128325837e-06,2.7439741943645e-05
5.3899999999999,0.01,-6.7404392709893e-06,-5.1567985661743e-06,-8.6845212927174e-06,-1.218112831644e-05,2.0191945077479e-06,-2.9786938748629e-06,2.7092565031926e-05
5.3999999999999,0.01,-6.7835640422085e-06,-5.1853967847715e-06,-8.8876135708204e-06,-1.1790531491147e-05,2.0269564095266e-06,-2.9732756163343e-06,2.675438865889e-05
5.4099999999999,0.01,-6.8252991947834e-06,-5.2131272027081e-06,-9.0891128783846e-06,-1.1409343710502e-05,2.03470108861e-06,-2.9679567566941e-06,2.6425044109339e-05
5.4199999999999,0.01,-6.8656549884853e-06,-5.2399973072203e-06,-9.2890323627148e-06,-1.1037374114953e-05,2.0424288265158e-06,-2.9627360205666e-06,2.610436300434e-05
5.4299999999999,0.01,-6.9046421023807e-06,-5.2660148401657e-06,-9.4873857120275e-06,-1.0674434889226e-05,2.0501399022884e-06,-2.9576121574279e-06,2.5792177507566e-05
5.4399999999999,0.01,-6.9422715811849e-06,-5.2911877625788e-06,-9.684187087511e-06,-1.032034140785e-05,2.0578345924458e-06,-2.9525839414881e-06,2.5488320514685e-05
5.4499999999999,0.01,-6.9785547858716e-06,-5.3155242221347e-06,-9.8794510608573e-06,-9.9749123552912e-06,2.0655131709359e-06,-2.9476501715376e-06,2.5192625827528e-05
5.4599999999999,0.01,-7.0135033482399e-06,-5.3390325233157e-06,-1.0073192556876e-05,-9.6379698231934e-06,2.0731759091004e-06,-2.9428096707613e-06,2.4904928314648e-05
5.4699999999999,0.01,-7.0471291291634e-06,-5.3617211000865e-06,-1.0265426800825e-05,-9.309339387069e-06,2.0808230756464e-06,-2.9380612865236e-06,2.4625064059645e-05
5.4799999999999,0.01,-7.0794441802598e-06,-5.3835984909001e-06,-1.0456169270122e-05,-8.9888501645516e-06,2.0884549366245e-06,-2.9334038901298e-06,2.4352870498517e-05
5.4899999999999,0.01,-7.1104607087394e-06,-5.4046733158636e-06,-1.0645435650108e-05,-8.6763348571522e-06,2.0960717554135e-06,-2.9288363765652e-06,2.4088186547117e-05
5.4999999999999,0.01,-7.1401910452061e-06,-5.4249542559095e-06,-1.0833241793586e-05,-8.3716297772941e-06,2.1036737927104e-06,-2.9243576642162e-06,2.3830852719683e-05
5.5099999999999,0.01,-7.1686476141973e-06,-5.4444500338223e-06,-1.1019603683838e-05,-8.074574862244e-06,2.1112613065259e-06,-2.9199666945747e-06,2.3580711239255e-05
5.5199999999999,0.01,-7.1958429072668e-06,-5.4631693969873e-06,-1.1204537400879e-05,-7.7850136764139e-06,2.1188345521845e-06,-2.91566243193e-06,2.3337606140711e-05
5.5299999999999,0.01,-7.2217894584248e-06,-5.4811211017303e-06,-1.1388059090704e-05,-7.5027934033806e-06,2.1263937823292e-06,-2.9114438630493e-06,2.3101383367023e-05
5.5399999999999,0.01,-7.2464998217631e-06,-5.4983138991313e-06,-1.1570184937295e-05,-7.2277648288436e-06,2.13393924693e-06,-2.9073099968489e-06,2.2871890859265e-05
5.5499999999999,0.01,-7.2699865511049e-06,-5.5147565222008e-06,-1.1750931137206e-05,-6.9597823156353e-06,2.1414711932957e-06,-2.9032598640582e-06,2.2648978640802e-05
5.5599999999999,0.01,-7.2922621815281e-06,-5.5304576743135e-06,-1.1930313876496e-05,-6.6987037717911e-06,2.1489898660897e-06,-2.8992925168785e-06,2.2432498896033e-05
5.5699999999999,0.01,-7.3133392126248e-06,-5.5454260188062e-06,-1.2108349309869e-05,-6.4443906125982e-06,2.1564955073481e-06,-2.8954070286375e-06,2.2222306043995e-05
5.5799999999999,0.01,-7.3332300933632e-06,-5.5596701696467e-06,-1.2285053541821e-05,-6.19670771745e-06,2.1639883565005e-06,-2.8916024934414e-06,2.2018256807068e-05
5.5899999999999,0.01,-7.3519472084345e-06,-5.573198683093e-06,-1.2460442609665e-05,-5.9555233822584e-06,2.1714686503939e-06,-2.8878780258256e-06,2.1820210274976e-05
5.5999999999999,0.01,-7.3695028659686e-06,-5.5860200502636e-06,-1.2634532468265e-05,-5.7207092681024e-06,2.1789366233176e-06,-2.8842327604052e-06,2.1628027964267e-05
5.6099999999999,0.01,-7.3859092865154e-06,-5.5981426905471e-06,-1.2807338976369e-05,-5.4921403467248e-06,2.1863925070312e-06,-2.8806658515266e-06,2.1441573873368e-05
5.6199999999999,0.01,-7.4011785931929e-06,-5.6095749457842e-06,-1.2978877884395e-05,-5.2696948434305e-06,2.1938365307932e-06,-2.8771764729205e-06,2.1260714533334e-05
5.6299999999999,0.01,-7.4153228029115e-06,-5.6203250751595e-06,-1.3149164823568e-05,-5.0532541778807e-06,2.2012689213924e-06,-2.8737638173584e-06,2.1085319054354e-05
5.6399999999999,0.01,-7.4283538185899e-06,-5.6304012507455e-06,-1.3318215296297e-05,-4.8427029032332e-06,2.208689903179e-06,-2.8704270963114e-06,2.091525916808e-05
5.6499999999999,0.01,-7.4402834222841e-06,-5.6398115536449e-06,-1.3486044667691e-05,-4.637928644026e-06,2.2160996980985e-06,-2.8671655396147e-06,2.075040926582e-05
5.6599999999999,0.01,-7.451123269155e-06,-5.6485639706816e-06,-1.3652668158115e-05,-4.4388220331664e-06,2.2234985257254e-06,-2.8639783951353e-06,2.0590646432629e-05
5.6699999999999,0.01,-7.4608848822099e-06,-5.6566663915936e-06,-1.3818100836722e-05,-4.2452766483454e-06,2.2308866032987e-06,-2.8608649284467e-06,2.0435850477332e-05
5.6799999999999,0.01,-7.469579647751e-06,-5.6641266066866e-06,-1.3982357615848e-05,-4.0571889481654e-06,2.2382641457572e-06,-2.8578244225085e-06,2.0285903958502e-05
5.6899999999999,0.01,-7.4772188114758e-06,-5.6709523049063e-06,-1.4145453246234e-05,-3.8744582082371e-06,2.245631365776e-06,-2.8548561773532e-06,2.0140692206427e-05
5.6999999999999,0.01,-7.4838134751734e-06,-5.6771510722946e-06,-1.4307402312972e-05,-3.6969864574748e-06,2.252988473804e-06,-2.8519595097797e-06,2.0000103341092e-05
5.7099999999999,0.01,-7.4893745939663e-06,-5.6827303907956e-06,-1.446821923214e-05,-3.524678414793e-06,2.2603356781003e-06,-2.8491337530547e-06,1.9864028286213e-05
5.7199999999999,0.01,-7.4939129740528e-06,-5.6876976373783e-06,-1.4627918248048e-05,-3.3574414263846e-06,2.2676731847728e-06,-2.8463782566212e-06,1.9732360779365e-05
5.7299999999999,0.01,-7.4974392709052e-06,-5.6920600834501e-06,-1.478651343105e-05,-3.1951854037444e-06,2.2750011978155e-06,-2.8436923858167e-06,1.9604997378251e-05
5.7399999999999,0.01,-7.4999639878839e-06,-5.6958248945304e-06,-1.4944018675874e-05,-3.0378227625773e-06,2.2823199191471e-06,-2.8410755215989e-06,1.9481837463176e-05
5.7499999999999,0.01,-7.5014974752326e-06,-5.6989991301637e-06,-1.5100447700418e-05,-2.8852683627227e-06,2.2896295486487e-06,-2.8385270602821e-06,1.936278323579e-05
5.7599999999999,0.01,-7.502049929417e-06,-5.7015897440457e-06,-1.5255814044971e-05,-2.7374394492086e-06,2.2969302842025e-06,-2.8360464132818e-06,1.9247739714181e-05
5.7699999999999,0.01,-7.5016313927788e-06,-5.7036035843445e-06,-1.5410131071827e-05,-2.5942555945366e-06,2.3042223217301e-06,-2.8336330068714e-06,1.9136614724408e-05
5.7799999999999,0.01,-7.5002517534735e-06,-5.7050473941951e-06,-1.556341196524e-05,-2.4556386422955e-06,2.3115058552305e-06,-2.8312862819485e-06,1.9029318888587e-05
5.7899999999999,0.01,-7.4979207456662e-06,-5.7059278123508e-06,-1.5715669731706e-05,-2.321512652186e-06,2.3187810768181e-06,-2.8290056938128e-06,1.892576560963e-05
5.7999999999999,0.01,-7.4946479499601e-06,-5.7062513739754e-06,-1.5866917200528e-05,-2.1918038465396e-06,2.3260481767613e-06,-2.8267907119573e-06,1.8825871052773e-05
5.8099999999999,0.01,-7.4904427940355e-06,-5.7060245115597e-06,-1.6017167024636e-05,-2.0664405584082e-06,2.33330734352e-06,-2.8246408198712e-06,1.872955412405e-05
5.8199999999999,0.01,-7.4853145534767e-06,-5.7052535559496e-06,-1.616643168165e-05,-1.9453531813006e-06,2.3405587637832e-06,-2.8225555148574e-06,1.8636736445838e-05
5.8299999999999,0.01,-7.4792723527693e-06,-5.7039447374741e-06,-1.6314723475139e-05,-1.8284741206415e-06,2.3478026225068e-06,-2.820534307865e-06,1.8547342329672e-05
5.8399999999999,0.01,-7.4723251664487e-06,-5.7021041871587e-06,-1.6462054536077e-05,-1.7157377470358e-06,2.3550391029504e-06,-2.818576723338e-06,1.8461298746503e-05
5.8499999999999,0.01,-7.4644818203839e-06,-5.6997379380172e-06,-1.6608436824465e-05,-1.6070803514218e-06,2.362268386715e-06,-2.8166822990812e-06,1.8378535294596e-05
5.8599999999999,0.01,-7.4557509931812e-06,-5.6968519264098e-06,-1.6753882131097e-05,-1.5024401022122e-06,2.3694906537794e-06,-2.8148505861471e-06,1.8298984165293e-05
5.8699999999999,0.01,-7.4461412176948e-06,-5.6934519934596e-06,-1.6898402079465e-05,-1.401757004531e-06,2.3767060825365e-06,-2.8130811487422e-06,1.8222580106874e-05
5.8799999999999,0.01,-7.4356608826304e-06,-5.68954388652e-06,-1.7042008127778e-05,-1.3049728616772e-06,2.3839148498304e-06,-2.8113735641598e-06,1.8149260386773e-05
5.8899999999999,0.01,-7.4243283660335e-06,-5.6851284739096e-06,-1.7184707567071e-05,-1.2120303966569e-06,2.3911112237325e-06,-2.6923027537953e-06,1.7707119453715e-05
5.8999999999999,0.01,-7.4121843670601e-06,-5.6802028884951e-06,-1.7326496644262e-05,-1.1228726832769e-06,2.3982785608466e-06,-2.5752595023739e-06,1.7163933523779e-05
5.9099999999999,0.01,-7.3992896689245e-06,-5.6747875429519e-06,-1.7467351195277e-05,-1.037445109513e-06,2.4053974707044e-06,-2.4801048747212e-06,1.6367440930936e-05
5.9199999999999,0.01,-7.385716277822e-06,-5.66893915476e-06,-1.7607225157355e-05,-9.5569670231595e-07,2.412452620524e-06,-2.3886785491794e-06,1.5604448952566e-05
5.9299999999999,0.01,-7.3715353015664e-06,-5.6627245352111e-06,-1.7746067954777e-05,-8.7757888491658e-07,2.4194313430651e-06,-2.3009384333065e-06,1.48744896667e-05
5.9399999999999,0.01,-7.3568107602659e-06,-5.6562032688432e-06,-1.7883837455472e-05,-8.0304403108542e-07,2.4263213707998e-06,-2.1937169693519e-06,1.4125808635544e-05
5.9499999999999,0.01,-7.3416032838706e-06,-5.649428561716e-06,-1.8020503116143e-05,-7.3204564035934e-07,2.4331039783831e-06,-1.971181967738e-06,1.3145992608829e-05
5.9599999999999,0.01,-7.3259711041018e-06,-5.6424470937616e-06,-1.815604679887e-05,-6.6453949610211e-07,2.4397505032097e-06,-1.7586952771851e-06,1.2212761241043e-05
5.9699999999999,0.01,-7.3099669112819e-06,-5.6352993438919e-06,-1.8290457473128e-05,-6.004834616463e-07,2.446230556357e-06,-1.5561560285187e-06,1.1325524278027e-05
5.9799999999999,0.01,-7.2936376728317e-06,-5.6280207033971e-06,-1.8423726246247e-05,-5.3983648495202e-07,2.4525186148489e-06,-1.3750312899365e-06,1.0421738289541e-05
5.9899999999999,0.01,-7.2770287097271e-06,-5.6206410673749e-06,-1.8555838137818e-05,-4.82558761498e-07,2.4585958748425e-06,-1.2394516390522e-06,9.3718158570998e-06
5.9999999999999,0.01,-7.2601843558234e-06,-5.6131837611843e-06,-1.8686767587979e-05,-4.2861255287621e-07,2.4644505980754e-06,-1.1110801458258e-06,8.3802230790986e-06
